#=======================================================
# FHI-aims file: ./geometry.in
# Created using the Atomic Simulation Environment (ASE)
# Wed Feb  9 14:46:31 2022
#=======================================================
lattice_vector 8.0239132699999995 2.3679104999999998 0.0183100900000000 
lattice_vector 1.6774929900000000 5.2046144800000000 0.0187177100000000 
lattice_vector -0.0209068600000000 -0.0323008600000000 15.1158577500000000 
atom_frac 0.3382971200000000 0.6128698499999999 0.2556906800000000 Cu
    initial_moment         1.000000
atom_frac 0.3387859200000001 0.6135243299999998 0.7440957600000000 Cu
    initial_moment         1.000000
atom_frac 0.5427160400000000 -0.0443350500000000 -0.0000415700000000 Ni
    initial_moment         1.000000
atom_frac 0.9829045299999999 0.5072981000000001 0.5000371800000000 Ni
    initial_moment        -1.000000
atom_frac 0.5634156000000000 0.1877337700000000 0.4074014900000000 H
atom_frac 0.4233153600000000 0.8831022999999999 0.4089143800000000 H
atom_frac 0.5642154800000000 0.1888726099999999 0.5925012000000000 H
atom_frac 0.9128146399999999 0.3707921000000001 0.0897540000000000 H
atom_frac 0.9136731899999999 0.3715526200000000 0.9105644899999999 H
atom_frac 0.1354797300000000 0.5482326600000000 0.9065157000000000 H
atom_frac 0.1346413300000000 0.5474583099999999 0.0933328900000000 H
atom_frac 0.4241350000000000 0.8842440000000000 0.5909340400000002 H
atom_frac 0.5660254200000000 0.0707140600000000 0.1943909200000000 C
atom_frac 0.4736090500000000 0.9224260800000000 0.1945096000000000 C
atom_frac 0.5664136300000000 0.0711892500000000 0.8055283200000000 C
atom_frac 0.9351358499999998 0.4357651800000001 0.3027488900000000 C
atom_frac 0.9355065100000000 0.4362302300000001 0.6974647200000000 C
atom_frac 0.0539724300000000 0.5435592299999997 0.6942105300000000 C
atom_frac 0.0535802300000000 0.5431379000000000 0.3057352300000000 C
atom_frac 0.4739974800000001 0.9228967300000001 0.8053700900000001 C
atom_frac 0.5374988600000000 0.1103244100000000 0.3457428300000000 C
atom_frac 0.4619512000000000 0.9406929900000001 0.3470586800000001 C
atom_frac 0.5381863300000000 0.1112613900000000 0.6541553800000000 C
atom_frac 0.9551899699999998 0.4176443400000001 0.1528677800000000 C
atom_frac 0.9558764299999999 0.4183326400000000 0.8473435100000001 C
atom_frac 0.0765162500000000 0.5184277099999999 0.8460938299999999 C
atom_frac 0.0758190200000000 0.5177686699999999 0.1538620600000000 C
atom_frac 0.4626464199999999 0.9416173799999998 0.6528115700000000 C
atom_frac 0.6562042000000000 0.1024626300000000 0.0956204800000000 S
atom_frac 0.4183694999999999 0.8290089999999999 0.0966002700000000 S
atom_frac 0.6563189800000000 0.1028183000000000 0.9043432800000000 S
atom_frac 0.8591266800000000 0.3807187000000000 0.4032589900000000 S
atom_frac 0.8593082100000000 0.3809326400000000 0.5971195900000001 S
atom_frac 0.1089407400000000 0.6322989300000000 0.5953230900000002 S
atom_frac 0.1087142200000000 0.6321799299999999 0.4044419800000000 S
atom_frac 0.4184876100000000 0.8293771900000000 0.9032714400000000 S
atom_frac 0.5796762899999999 0.1925050300000000 0.2697637800000001 N
atom_frac 0.4147289600000000 0.8685862099999999 0.2711012700000000 N
atom_frac 0.5802269000000000 0.1931983600000000 0.7301448900000000 N
atom_frac 0.8849840200000001 0.3752817099999998 0.2261453400000000 N
atom_frac 0.8854820999999999 0.3759204600000000 0.7741976999999999 N
atom_frac 0.1308835400000000 0.5727311899999999 0.7688237100000000 N
atom_frac 0.1303768200000000 0.5721296100000000 0.2310070000000000 N
atom_frac 0.4152667500000001 0.8692851500000000 0.7287453400000000 N
