#=======================================================
# FHI-aims file: ./geometry.in
# Created using the Atomic Simulation Environment (ASE)
# Fri Jan 14 15:04:10 2022
#=======================================================
lattice_vector 7.5737160460000004 -0.0173807590000000 2.2863146639999998 
lattice_vector 1.4353922859999999 8.4154899000000007 3.3993657740000001 
lattice_vector -0.0892193520000000 -0.1446226750000000 11.0191770509999998 
atom_frac 0.0207599716394782 0.3911520269236846 0.6573319700860977 Cu
atom_frac 0.9792333796091484 0.6088426186365725 0.3426785491964634 Cu
atom_frac 0.9999998773722820 0.4999986163177466 0.9999991271587447 Cu
atom_frac 0.6504182807319197 0.2172430688055300 0.1443901379321488 H
atom_frac 0.3495830772299017 0.7827573197614086 0.8556078732978065 H
atom_frac 0.4199852996070561 0.3089836516099497 0.1654590894036047 H
atom_frac 0.5800153441731482 0.6910202220237738 0.8345343648460498 H
atom_frac 0.5976405179878835 0.0868398359443532 0.3783799220665358 H
atom_frac 0.4023500907455214 0.9131545965191421 0.6216185268633296 H
atom_frac 0.3761124007981350 0.1948038818646154 0.3960857543072153 H
atom_frac 0.6238763776664554 0.8051999939639388 0.6039092536323379 H
atom_frac 0.4903263124637219 0.2976008116081986 0.5174456968958622 H
atom_frac 0.5096698171874010 0.7023924771378984 0.4825546818839824 H
atom_frac 0.7090918375251716 0.2854556982992449 0.4162901259976977 H
atom_frac 0.2909097976887266 0.7145364157252487 0.5837103803651331 H
atom_frac 0.3778462884288061 0.5249250454743688 0.3333790027625412 H
atom_frac 0.6221528901501543 0.4750729823084330 0.6666201889479311 H
atom_frac 0.5844041286371819 0.5701544376097730 0.3374403344896209 H
atom_frac 0.4155968538148257 0.4298412854983127 0.6625628239609042 H
atom_frac 0.2762676115470271 0.0194305575056006 0.9687686917970666 H
atom_frac 0.7237523101550494 0.9805628508676425 0.0312357886709972 H
atom_frac 0.1562320494818649 0.8818384059751667 0.1051478775093315 H
atom_frac 0.8437879891962365 0.1181607882069144 0.8948475337220639 H
atom_frac 0.4261343812689233 0.0593974797350398 0.1235100361214023 H
atom_frac 0.5738681585139247 0.9406042752491857 0.8764981984703013 H
atom_frac 0.4487200225543616 0.8514115100249527 0.1676491517547020 H
atom_frac 0.5512897618812216 0.1485938267428111 0.8323591972422619 H
atom_frac 0.2054072454633982 0.8397078731625953 0.3584015557731276 H
atom_frac 0.7945824102236330 0.1602983964206217 0.6415943467110664 H
atom_frac 0.3033052573891906 0.9916967783654230 0.3599196779800735 H
atom_frac 0.6966845398556031 0.0083025850589706 0.6400892157568876 H
atom_frac 0.9392797848721341 0.0169249900091657 0.3370611621263108 H
atom_frac 0.0607129197427411 0.9830860186107632 0.6629335532885036 H
atom_frac 0.0409407748943948 0.1819697393877533 0.3099301142198314 H
atom_frac 0.9590630731769988 0.8180447366020264 0.6900575893912799 H
atom_frac 0.5429912109179895 0.2827997442072460 0.2025324986041923 C
atom_frac 0.4570090573524011 0.7171994639676242 0.7974661028660250 C
atom_frac 0.5172142267183303 0.2059106245468740 0.3543649386305531 C
atom_frac 0.4827767805572801 0.7940885198817683 0.6456310664792466 C
atom_frac 0.5661699858438850 0.3130323984399297 0.4148763212062008 C
atom_frac 0.4338296330279831 0.6869632336218816 0.5851217032014802 C
atom_frac 0.5221339162229625 0.4825027017432575 0.3269994105659748 C
atom_frac 0.4778613251648807 0.5174953629427252 0.6730024016859629 C
atom_frac 0.2227774275821944 0.9845071121532594 0.0761818160568595 C
atom_frac 0.7772404854553085 0.0154898297593888 0.9238210835895443 C
atom_frac 0.3511340876377317 0.9609685628432202 0.1642775441039034 C
atom_frac 0.6488712996448028 0.0390319748457557 0.8357286601865894 C
atom_frac 0.2345077676512800 0.9592191633065710 0.3021881437312500 C
atom_frac 0.7654848123100990 0.0407860440024166 0.6978147397867289 C
atom_frac 0.0571125012870652 0.0736965474531459 0.2843253461882753 C
atom_frac 0.9428870340834125 0.9263132999809615 0.7156701251848643 C
atom_frac 0.0492651171095631 0.1444816490769015 0.1084725712231958 S
atom_frac 0.9507441075570210 0.8555186501815727 0.8915192977903313 S
atom_frac 0.6141421896212692 0.4719162540491624 0.1595338504629352 S
atom_frac 0.3858560776620122 0.5280865031672235 0.8404640713191327 S
atom_frac 0.8348916297772675 0.4065517589247634 0.8482844813254713 Cl
atom_frac 0.1650977492562831 0.5934356608315171 0.1517209236808198 Cl
atom_frac 0.2164661526365705 0.1796409386392881 0.7302047117772261 Cl
atom_frac 0.7835357223928197 0.8203572092276730 0.2698011434849332 Cl
atom_frac 0.9591085354599969 0.6535013232229473 0.5414348124155950 Cl
atom_frac 0.0408867212827744 0.3464967724672405 0.4585688021033433 Cl
atom_frac 0.1493487427397469 0.2876237870141836 0.0483968375852086 O
atom_frac 0.8506558382315744 0.7123800497163587 0.9515939961229803 O
atom_frac 0.8168585866412597 0.4235540329826081 0.1598439832335004 O
atom_frac 0.1831393051322151 0.5764440587749250 0.8401590857691301 O
