#=======================================================
# FHI-aims file: ./geometry.in
# Created using the Atomic Simulation Environment (ASE)
# Fri Jan 14 15:06:22 2022
#=======================================================
lattice_vector 4.7617431479999999 0.0000000000000000 -0.8960080000000000 
lattice_vector 0.0263140170000000 13.3845568880000005 0.0000000000000000 
lattice_vector 0.1890524530000000 -0.0018594310000000 13.0431980660000004 
atom_frac 0.2435541034726257 0.2401367727736243 0.2120520144790277 Ce
atom_frac 0.7541360184704047 0.7404544892797630 0.7880016736408918 Ce
atom_frac 0.6711873610045060 0.5202421931152159 0.6675317817686945 H
atom_frac 0.3298079058238700 0.0189962940814254 0.3318105345163005 H
atom_frac 0.7721833579278796 0.1954590917823609 0.8730268764263514 H
atom_frac 0.2275510403424549 0.6955400850122757 0.1268322035887408 H
atom_frac 0.2498572104696279 0.4281583980620952 0.9628945290784828 H
atom_frac 0.7509684769201216 0.9269614196698726 0.0364921057442942 H
atom_frac 0.1505995717151905 0.3361145134931859 0.6420387376377191 H
atom_frac 0.8491469921754486 0.8357523566402705 0.3576157070192849 H
atom_frac 0.7166441311628162 0.1393054060970584 0.6997477787649586 H
atom_frac 0.2827886647888675 0.6397154745818980 0.3001787511121421 H
atom_frac 0.6289449808212950 0.2356819941284272 0.6072061233985835 H
atom_frac 0.3699831240011662 0.7363060116689865 0.3924319643901413 H
atom_frac 0.3080608685854572 0.0229959545037772 0.7371401518314969 H
atom_frac 0.6929501625257403 0.5232731333649739 0.2629952310673076 H
atom_frac 0.2196022667642055 0.2248415082291828 0.4753914919073523 H
atom_frac 0.7782668873689006 0.7253460338744729 0.5244904909517771 H
atom_frac 0.6291346142927524 0.9843380465152477 0.4832556874156425 H
atom_frac 0.3713411315656003 0.4848163360925141 0.5172714997098069 H
atom_frac 0.6578132786379457 0.0874766075165070 0.1213433969305058 H
atom_frac 0.3413498929701717 0.5880556370799468 0.8788321834029915 H
atom_frac 0.4142159835632810 0.1031880680635808 0.0250437686637639 H
atom_frac 0.5849743362764174 0.6031184496460468 0.9751367433615101 H
atom_frac 0.6022335570239364 0.2490432076886648 0.8513254210182524 C
atom_frac 0.3973192738966348 0.7489957383924163 0.1484698183809314 C
atom_frac 0.5230210666212828 0.3100855213168642 0.9289402030507503 C
atom_frac 0.4768013065547692 0.8097146263482385 0.0707094824763601 C
atom_frac 0.3136082927571878 0.3817353171047273 0.9024631443618532 C
atom_frac 0.6867636254129652 0.8809869939481061 0.0970931895744300 C
atom_frac 0.1850200676876171 0.3920327565681561 0.7984874114544951 C
atom_frac 0.8152211179408796 0.8913379774520748 0.2010645418534409 C
atom_frac 0.2557654097255266 0.3277921956592564 0.7224200541583130 C
atom_frac 0.7441236142793173 0.8274062110090767 0.2772357433419046 C
atom_frac 0.4665427659468833 0.2560877592053714 0.7481758692347498 C
atom_frac 0.5329737837376031 0.7560689433085912 0.2515731768708349 C
atom_frac 0.5467584362952066 0.1893089181679599 0.6647112072604457 C
atom_frac 0.4524432111026542 0.6896330751560669 0.3351166419904033 C
atom_frac 0.2994738211656553 0.1294175062753169 0.6109261623747387 C
atom_frac 0.6999581308121919 0.6296811743103418 0.3890969116003902 C
atom_frac 0.2018782669719954 0.0472483555522629 0.6605799052222282 C
atom_frac 0.7986422098559276 0.5474250332759212 0.3396199142843416 C
atom_frac 0.9616577551316542 0.9952568803707537 0.6143457303426061 C
atom_frac 0.0391104707808765 0.4954051186017097 0.3861356140739786 C
atom_frac 0.1518877602903075 0.1593198938163667 0.5142337496051823 C
atom_frac 0.8467675538863659 0.6597777841346968 0.4857858073120340 C
atom_frac 0.9110435122622960 0.1077427205312773 0.4671172088705049 C
atom_frac 0.0880567616781818 0.6082331382720838 0.5329804491000587 C
atom_frac 0.8176971407173498 0.0247031999966296 0.5170321837892615 C
atom_frac 0.1824257406436303 0.5251327183458656 0.4833427270767459 C
atom_frac 0.7491162225922494 0.1461441216544799 0.3680212555297401 C
atom_frac 0.2503031665664324 0.6468039798143933 0.6317326163395265 C
atom_frac 0.8487213414914906 0.9144467365505591 0.6745969099927579 C
atom_frac 0.1544467136604482 0.4141644689474119 0.3269256105317382 C
atom_frac 0.9873775855516059 0.4752176736916809 0.7679702604368117 C
atom_frac 0.0125193154232690 0.9744096095563320 0.2317113787186855 C
atom_frac 0.6583189511077948 0.2972279485412415 0.0400046862819892 C
atom_frac 0.3411699337990441 0.7969284904439390 0.9598183610104982 C
atom_frac 0.5243396590366061 0.3278946347517788 0.1099218552044690 O
atom_frac 0.4746709815202621 0.8277879045393064 0.8896805015220295 O
atom_frac 0.8967126867724888 0.2541524968363262 0.0583792208932650 O
atom_frac 0.1034989865371188 0.7537507903494003 0.9413271084132546 O
atom_frac 0.7959083172883937 0.4582881559247696 0.6850988671904261 O
atom_frac 0.2042634536398040 0.9572318862484792 0.3144168836367740 O
atom_frac 0.0103162572497055 0.5566077074255631 0.8161229627244565 O
atom_frac 0.9886820150333264 0.0559930340646559 0.1839002200831885 O
atom_frac 0.9379155130771438 0.9099140759371949 0.7726624829313735 O
atom_frac 0.0677879048057690 0.4094274407729870 0.2284959938451010 O
atom_frac 0.6672175465326405 0.8519684627375882 0.6294163607646012 O
atom_frac 0.3347112919126189 0.3518161694190808 0.3729816852145688 O
atom_frac 0.8498400717821467 0.2112452043501136 0.3137814424290610 O
atom_frac 0.1478200672519066 0.7105119533147146 0.6871235043329164 O
atom_frac 0.4952876555413540 0.1152402234113623 0.3384508675961655 O
atom_frac 0.5066201173922380 0.6175584747235803 0.6596300719048215 O
atom_frac 0.4588152439148275 0.1084403806536187 0.1002692838406531 O
atom_frac 0.5413603347751915 0.6075817990567387 0.8998202075482665 O
