#=======================================================
# FHI-aims file: ./geometry.in
# Created using the Atomic Simulation Environment (ASE)
# Fri Jan 14 15:06:09 2022
#=======================================================
lattice_vector 10.9914035600000002 -0.0577457960000000 -3.7165436270000001 
lattice_vector -5.4285598730000002 14.3233443210000004 -1.6172750800000000 
lattice_vector 0.0069890500000000 0.0555446290000000 15.6671470700000004 
atom_frac 0.6814601956532014 0.7973317254767947 0.2101844874885755 H
atom_frac 0.3185288484586478 0.2026631619737174 0.7898054692384233 H
atom_frac 0.6919688387862307 0.9575104503130304 0.2609869014272517 H
atom_frac 0.3080146639860358 0.0424787650970515 0.7390196653512645 H
atom_frac 0.4910399767989233 0.0490645020308378 0.2190623651828217 H
atom_frac 0.5089473580206559 0.9509379974200413 0.7809432905120913 H
atom_frac 0.4989530272824821 0.0804067621182227 0.1142990831933445 H
atom_frac 0.5010413524269738 0.9195860383866831 0.8856944769220616 H
atom_frac 0.6442381060509914 0.0981196267961266 0.2099364638561880 H
atom_frac 0.3557576264102948 0.9018703863899873 0.7900571294305434 H
atom_frac 0.3838693226976062 0.9279274113532026 0.0052754316362638 H
atom_frac 0.6161030264639819 0.0720631651275880 0.9947286297943020 H
atom_frac 0.3762083192723936 0.7677564403667462 0.9521100378571246 H
atom_frac 0.6237729408733514 0.2322355917587586 0.0478879900715938 H
atom_frac 0.3154759662652963 0.4700710569618635 0.2282454094655150 H
atom_frac 0.6845417869223951 0.5299322473557311 0.7717643537342764 H
atom_frac 0.1342525580805329 0.4473425902029078 0.2864466320798015 H
atom_frac 0.8657544783155159 0.5526537366035454 0.7135509327294540 H
atom_frac 0.9075185883099690 0.4371746503792550 0.2540720448750802 H
atom_frac 0.0924685799279743 0.5628090676049807 0.7459156755885770 H
atom_frac 0.8401126807484900 0.3193880821154310 0.1931330447166032 H
atom_frac 0.1598868414026384 0.6806096096591361 0.8068647933083068 H
atom_frac 0.7916116280672725 0.4049999649659029 0.1393167174815275 H
atom_frac 0.2083937679473635 0.5949893606028313 0.8606842034284551 H
atom_frac 0.8587652948012732 0.3747500716499629 0.0067652799272651 H
atom_frac 0.1412542723854314 0.6252476849474318 0.9932366815724120 H
atom_frac 0.0405487043425836 0.3995734946065710 0.9488365187193747 H
atom_frac 0.9594560812772528 0.6004256365189918 0.0511556954186858 H
atom_frac 0.8854129668326393 0.9119217180548418 0.1717558516967371 H
atom_frac 0.1145883904648599 0.0880815402129116 0.8282487407775817 H
atom_frac 0.8452488833649312 0.9461034264491205 0.0153827524769383 H
atom_frac 0.1547455961614546 0.0538914308981546 0.9846206178134336 H
atom_frac 0.8100603364401450 0.0583523539812418 0.9156010551725371 H
atom_frac 0.1899329965298548 0.9416383323036753 0.0843965063396509 H
atom_frac 0.9763631126630584 0.1302476555055776 0.9538068625204656 H
atom_frac 0.0236317071043929 0.8697423523674743 0.0461871519878726 H
atom_frac 0.8615673016947981 0.1796356842072342 0.9656763105813152 H
atom_frac 0.1384220500593543 0.8203543041837663 0.0343170430780617 H
atom_frac 0.9807248241508120 0.2400133925549142 0.1351754894634850 H
atom_frac 0.0192684285405988 0.7599808076302779 0.8648160329520420 H
atom_frac 0.0181733295095015 0.2054277963305395 0.2914120361107066 H
atom_frac 0.9818314756486684 0.7945769055376743 0.7085839491056516 H
atom_frac 0.5347740450165687 0.8643957029225930 0.3486146312461427 H
atom_frac 0.4652253626272723 0.1356054506876987 0.6513905580322471 H
atom_frac 0.3157272427145584 0.8766267253907926 0.2868952853467802 H
atom_frac 0.6842720455531007 0.1233723416259522 0.7131077453852938 H
atom_frac 0.1720903417814555 0.9637305521271172 0.3097142477265322 H
atom_frac 0.8279042701606156 0.0362664116478228 0.6902861800243867 H
atom_frac 0.2307631575897275 0.0467825079343172 0.2490543753444570 H
atom_frac 0.7692380835914676 0.9532186686984191 0.7509467833121090 H
atom_frac 0.2425833228731165 0.0851933483847063 0.3628524425388519 H
atom_frac 0.7574158688165723 0.9148092077396723 0.6371509254537667 H
atom_frac 0.4779065207924090 0.1641606027425198 0.4338539273114818 H
atom_frac 0.5220894618098910 0.8358391419770185 0.5661509423247820 H
atom_frac 0.6974054965644783 0.1518289070218586 0.4946386873638743 H
atom_frac 0.3025923163152910 0.8481708557615946 0.5053634269220024 H
atom_frac 0.5685660641951173 0.5040868028121608 0.0738767308168136 Ru
atom_frac 0.4314470452657417 0.4959144478489251 0.9261176766874113 Ru
atom_frac 0.9560835481293209 0.9202153183608174 0.4669929686374487 Ru
atom_frac 0.0439191977577238 0.0797907481234432 0.5330090517292874 Ru
atom_frac 0.7632614848825695 0.5530923736720438 0.2933250769728487 C
atom_frac 0.2367464262652703 0.4469186187915852 0.7066722944033044 C
atom_frac 0.8547721247945929 0.5973879449854421 0.3821479751680098 C
atom_frac 0.1452407324000190 0.4026293710131126 0.6178442012032335 C
atom_frac 0.8779009222676704 0.6928150052052044 0.4026891106958742 C
atom_frac 0.1221189765360293 0.3071981478803138 0.5973036680742466 C
atom_frac 0.9240765208446078 0.5501647515894206 0.4413093472700351 C
atom_frac 0.0759406854740305 0.4498595369592663 0.5586896867786348 C
atom_frac 0.8822360942426144 0.4510113147602225 0.4262351188694422 C
atom_frac 0.1177854302521339 0.5490143582411093 0.5737714652283896 C
atom_frac 0.0429948339090131 0.5977960477346825 0.5176764340466631 C
atom_frac 0.9570237463297246 0.4022310267171392 0.4823257666159007 C
atom_frac 0.5218053705503536 0.6761401573659143 0.0477774956859775 C
atom_frac 0.4782695025565431 0.3238774480222447 0.9522045290518474 C
atom_frac 0.5279358108490442 0.7720202842190319 0.0776622338937472 C
atom_frac 0.4720050557500385 0.2279470875444715 0.9223517505477683 C
atom_frac 0.6164586307833845 0.8260551896949551 0.1651822030509250 C
atom_frac 0.3835198603329600 0.1739312383938625 0.8348177809143632 C
atom_frac 0.6215648409887748 0.9160040491180440 0.1935625775907041 C
atom_frac 0.3784481605054708 0.0839951323043451 0.8064252079171721 C
atom_frac 0.5380707501137535 0.9542849170001517 0.1373648069478789 C
atom_frac 0.4619215507653179 0.0457092183696304 0.8626424399465547 C
atom_frac 0.5432317409642023 0.0506904630424572 0.1712567626734368 C
atom_frac 0.4567562384788745 0.9493022829161576 0.8287442094432718 C
atom_frac 0.4493846380439096 0.8994336260614516 0.0502758542201533 C
atom_frac 0.5506281784440858 0.1005725459725326 0.9497094176302096 C
atom_frac 0.4445746005067618 0.8096345329932504 0.0201301903242380 C
atom_frac 0.5554068707033223 0.1903560891803764 0.9798715717974101 C
atom_frac 0.2978601758505519 0.4535339152655311 0.0521696409522647 C
atom_frac 0.7021342233763335 0.5464699969734995 0.9478391129483935 C
atom_frac 0.1887126777279917 0.4352667115141601 0.0850196209608640 C
atom_frac 0.8112913264372280 0.5647198008795369 0.9149851473281454 C
atom_frac 0.2149192122898143 0.4485672639490090 0.1803470200298633 C
atom_frac 0.7850865434833095 0.5514283238796267 0.8196597388833380 C
atom_frac 0.1133570644514138 0.4356968914072610 0.2122491213946844 C
atom_frac 0.8866432901149535 0.5643043195806497 0.7877422563119649 C
atom_frac 0.9837641680119376 0.4083717892578207 0.1504825324421618 C
atom_frac 0.0162361311574558 0.5916237964436137 0.8495191021720315 C
atom_frac 0.8750536140610591 0.3922173698954979 0.1857286650783364 C
atom_frac 0.1249559298138010 0.6077748120593752 0.8142601307948707 C
atom_frac 0.9588474389301780 0.3947817003035894 0.0553641923757269 C
atom_frac 0.0411592523349855 0.6052194685392893 0.9446446411227283 C
atom_frac 0.0598316452035946 0.4083369501780823 0.0225816539450250 C
atom_frac 0.9401620214668044 0.5916544177070264 0.9774205250349649 C
atom_frac 0.9755502113874783 0.0360469211285661 0.3343520479381468 C
atom_frac 0.0244488951338014 0.9639591414582965 0.6656471938649772 C
atom_frac 0.9546169388591534 0.0564621847724567 0.2415679362572119 C
atom_frac 0.0453871337216258 0.9435355137333092 0.7584328967454324 C
atom_frac 0.9063902536375676 0.9837180110327209 0.1632640284982044 C
atom_frac 0.0936091621559640 0.0162831549738911 0.8367379726015826 C
atom_frac 0.8841711435640887 0.0033346117879702 0.0758736487265636 C
atom_frac 0.1158218687241048 0.9966609537223480 0.9241256169390083 C
atom_frac 0.9100740398711620 0.0955849446525789 0.0640363569390486 C
atom_frac 0.0899233411003096 0.9044176231590555 0.9359621147753000 C
atom_frac 0.8875990246483240 0.1169752577799485 0.9698186657650535 C
atom_frac 0.1123931747838825 0.8830168182681958 0.0301794085901435 C
atom_frac 0.9592554520446583 0.1678793033839837 0.1429463667358205 C
atom_frac 0.0407413548441085 0.8321184071610971 0.8570438080538236 C
atom_frac 0.9810041149171197 0.1490365176426564 0.2305804382386185 C
atom_frac 0.0190011221493550 0.8509653791973831 0.7694191895492748 C
atom_frac 0.7612311186437707 0.0023331572556131 0.4588973338690180 C
atom_frac 0.2387699016934519 0.9976694144534192 0.5411039164089428 C
atom_frac 0.6298734731889581 0.0076932132010512 0.4248836278136706 C
atom_frac 0.3701277663622947 0.9923079609524237 0.5751181684786173 C
atom_frac 0.5216102694624780 0.9299375214828062 0.3666508060806491 C
atom_frac 0.4783842426417521 0.0700629264412385 0.6333512342022515 C
atom_frac 0.3994955076995764 0.9373531257956457 0.3321223903380000 C
atom_frac 0.6005052820140547 0.0626508261140941 0.6678827773756807 C
atom_frac 0.3817258309569097 0.0216529076547189 0.3550480114477991 C
atom_frac 0.6182701663148295 0.9783468593782063 0.6449511194669738 C
atom_frac 0.2499744770903618 0.0295639952512232 0.3175769104800991 C
atom_frac 0.7500251546573153 0.9704357682413016 0.6824269119054518 C
atom_frac 0.4904902008330154 0.0986080024420630 0.4140341867008459 C
atom_frac 0.5095060091329984 0.9013903571182382 0.5859680407711350 C
atom_frac 0.6131688358054816 0.0921701095144840 0.4485349578215503 C
atom_frac 0.3868232572691283 0.9078254407657055 0.5514672796085092 C
atom_frac 0.7635043590200041 0.2872106979664083 0.3699988222701335 S
atom_frac 0.2365117712202932 0.7128114317355242 0.6300156906182790 S
atom_frac 0.6916740056184877 0.5229617712147389 0.2162180288974084 N
atom_frac 0.3083492823890381 0.4770471952262342 0.7837776747937466 N
atom_frac 0.8871525703454141 0.7715804306146553 0.4133100305506119 N
atom_frac 0.1128339299964338 0.2284277235193457 0.5866768625582706 N
atom_frac 0.7691307460521839 0.3914196412105966 0.3603547716056780 N
atom_frac 0.2308785552942255 0.6085997029402820 0.6396508127341177 N
atom_frac 0.8978629459006483 0.3080335165014745 0.4556280545306135 N
atom_frac 0.1021552680389348 0.6919928267648601 0.5443822813785669 N
atom_frac 0.5864761943442005 0.6401378542709609 0.1073305404258420 O
atom_frac 0.4134940532097033 0.3598429403820447 0.8926732892699361 O
atom_frac 0.4506894800061190 0.6313674170698674 0.9637748236586743 O
atom_frac 0.5493001940388639 0.3686232355664743 0.0362276109185515 O
atom_frac 0.4111609505700003 0.4656744946686758 0.1110222147248549 O
atom_frac 0.5888326949321225 0.5343112999945205 0.8889768308125522 O
atom_frac 0.2763281079722049 0.4583819347818832 0.9672313077284470 O
atom_frac 0.7236646834511049 0.5416205667962045 0.0327794722654744 O
atom_frac 0.9412969217596370 0.9499458705862835 0.3410617667437633 O
atom_frac 0.0587063933412111 0.0500595047352590 0.6589390407478886 O
atom_frac 0.0265298428766698 0.1048159556918051 0.4048449614506210 O
atom_frac 0.9734762086757344 0.8951894330896624 0.5951552200119322 O
atom_frac 0.7735956272564690 0.9231070858194029 0.4393090812048042 O
atom_frac 0.2264069911047032 0.0768968816749904 0.5606939687942256 O
atom_frac 0.8587212561890141 0.0777330974736756 0.5046324501946556 O
atom_frac 0.1412794239280616 0.9222687827181063 0.4953667331583914 O
