#=======================================================
# FHI-aims file: ./geometry.in
# Created using the Atomic Simulation Environment (ASE)
# Wed Feb  9 14:46:23 2022
#=======================================================
lattice_vector 8.6423790300000007 0.0523944000000000 2.6212571800000002 
lattice_vector 4.6547515600000002 -10.0278718399999995 0.3850074300000000 
lattice_vector 8.6664336800000008 0.2274916000000000 -13.2376567800000000 
atom_frac 0.6189190800000001 0.2510533000000000 0.7497699300000000 Fe
    initial_moment         4.000000
atom_frac 0.3811451599999999 0.7487022800000001 0.2504046100000000 Fe
    initial_moment        -4.000000
atom_frac 0.4851287000000000 0.1695300800000000 0.6165555900000000 Si
atom_frac 0.7285594100000000 0.6685006900000000 0.1178095800000000 Si
atom_frac 0.5145164000000001 0.8304847900000000 0.3835947299999999 Si
atom_frac 0.2715578499999998 0.3316252100000000 0.8822731300000001 Si
atom_frac 0.7424189400000001 0.9497615699999999 0.7056514100000000 Si
atom_frac 0.6048476600000000 0.4476226699999999 0.2062411700000000 Si
atom_frac 0.2577149400000000 0.0502507200000000 0.2942114200000000 Si
atom_frac 0.3953412800000001 0.5523796499999999 0.7935535599999999 Si
atom_frac 0.3124599000000001 0.3830041900000000 0.5521641900000002 H
atom_frac 0.7514448600000000 0.8825127699999999 0.0549884300000000 H
atom_frac 0.6866468200000003 0.6170265200000000 0.4482775600000000 H
atom_frac 0.2484503099999999 0.1177103100000000 0.9452018099999999 H
atom_frac 0.4915746100000001 0.3982862300000000 0.5669558100000001 H
atom_frac 0.5426779399999998 0.8977719300000002 0.0690881900000000 H
atom_frac 0.5080223600000000 0.6016795600000000 0.4328642600000000 H
atom_frac 0.4572878599999999 0.1022860300000000 0.9310711000000000 H
atom_frac 0.3245065200000001 0.4020280299999999 0.6600249200000000 H
atom_frac 0.6133872600000001 0.9003331899999999 0.1627318700000000 H
atom_frac 0.6757116000000000 0.5980106600000000 0.3401780600000000 H
atom_frac 0.3864852700000001 0.0997491300000000 0.8374568999999999 H
atom_frac 0.5168697499999999 0.1495386900000000 0.4587866600000001 H
atom_frac 0.8722323400000002 0.6509961000000000 0.9599528800000001 H
atom_frac 0.4828328300000001 0.8516817499999999 0.5411847200000001 H
atom_frac 0.1273388000000000 0.3498623000000000 0.0400437100000000 H
atom_frac 0.6474073700000001 -0.0019371800000000 0.5052431500000000 H
atom_frac 0.8476585700000001 0.4988936799999999 0.0050839100000000 H
atom_frac 0.3503414400000000 1.0020799600000001 0.4947243199999999 H
atom_frac 0.1532048199999999 0.5014702200000000 0.9947848500000002 H
atom_frac 0.7085141000000000 0.1367249300000000 0.4757959800000000 H
atom_frac 0.6769909500000001 0.6379542999999999 0.9762188100000001 H
atom_frac 0.2919459500000000 0.8620599099999999 0.5246247800000000 H
atom_frac 0.3230974500000000 0.3619254499999999 0.0239350700000000 H
atom_frac 0.2112955400000000 0.1677949400000000 0.6140312400000000 H
atom_frac 0.0059871300000000 0.6671808500000000 0.1160590100000000 H
atom_frac 0.7884306700000002 0.8320309099999996 0.3861578899999999 H
atom_frac 0.9942291700000000 0.3328203600000000 0.8839253900000000 H
atom_frac 0.2334200899999999 0.1511453500000000 0.7244880000000001 H
atom_frac 0.8931165200000000 0.6462798500000000 0.2262687300000000 H
atom_frac 0.7661217300000001 0.8491018399999998 0.2757010000000000 H
atom_frac 0.1070423600000001 0.3540806100000000 0.7737551400000000 H
atom_frac 0.3333980699999999 0.0109135000000000 0.6599106500000000 H
atom_frac 0.9971501599999999 0.5088922799999999 0.1591880300000000 H
atom_frac 0.6662552600000001 0.9890891399999998 0.3405045700000000 H
atom_frac 0.0028601200000002 0.4912475699999999 0.8410293100000000 H
atom_frac 0.7504180600000003 0.7288058499999999 0.6911179699999999 H
atom_frac 0.8337891800000000 0.2276065200000000 0.1902034600000000 H
atom_frac 0.2500276100000001 0.2711513600000000 0.3086414100000000 H
atom_frac 0.1663230300000000 0.7723981599999998 0.8094279300000001 H
atom_frac 0.6964861400000000 0.8344033699999999 0.5960514700000000 H
atom_frac 0.8775830400000001 0.3364427700000000 0.0975977500000000 H
atom_frac 0.3053351600000000 0.1653009800000000 0.4033789600000000 H
atom_frac 0.1218280500000000 0.6634057799999999 0.9017617499999999 H
atom_frac 0.5450613700000001 0.8468200699999999 0.6980040000000000 H
atom_frac 0.9110136100000000 0.3455876100000000 0.2016525900000000 H
atom_frac 0.4555732599999999 0.1531400900000000 0.3009991700000000 H
atom_frac 0.0895407700000000 0.6544546500000000 0.7973759100000000 H
atom_frac 0.9667549199999997 0.9227421899999999 0.5689004800000000 H
atom_frac 0.5453958500000000 0.4187346599999999 0.0689610100000000 H
atom_frac 0.0334823300000000 0.0775585500000000 0.4310537800000000 H
atom_frac 0.4547948399999999 0.5810119899999999 0.9309330000000001 H
atom_frac 0.0498650500000001 0.8196167799999999 0.6590987400000000 H
atom_frac 0.4767726600000001 0.3153679500000000 0.1591904000000000 H
atom_frac 0.9504947000000000 0.1810138300000000 0.3409119900000000 H
atom_frac 0.5220666200000000 0.6853311000000000 0.8409147200000000 H
atom_frac 0.0106444100000002 0.9920089799999999 0.6468410999999999 H
atom_frac 0.3545110100000000 0.4873588100000000 0.1463954700000000 H
atom_frac 0.9890262300000001 0.0087516900000000 0.3530799100000000 H
atom_frac 0.6455981000000001 0.5135573299999999 0.8531557400000001 H
atom_frac 0.8186812799999998 0.7846601400000000 0.8304286399999999 H
atom_frac 0.5721934700000000 0.2814785200000000 0.3304631100000001 H
atom_frac 0.1811797300000000 0.2150708600000000 0.1693594000000000 H
atom_frac 0.4283131200000000 0.7182751700000000 0.6692361500000000 H
atom_frac 0.6109137200000004 0.9003003299999998 0.8612340899999998 H
atom_frac 0.6286315800000000 0.3994626500000000 0.3625260500000000 H
atom_frac 0.3890280600000000 0.0995705400000000 0.1385705700000000 H
atom_frac 0.3724900300000000 0.5999857900000000 0.6371024100000000 H
atom_frac 0.7807105799999999 0.9429681899999999 0.8605168900000000 H
atom_frac 0.4185182999999998 0.4386555800000000 0.3601917200000000 H
atom_frac 0.2193796900000000 0.0566389500000000 0.1393995600000000 H
atom_frac 0.5823563400000001 0.5611244900000000 0.6397826000000000 H
atom_frac 0.9827350400000000 0.1100561500000000 0.7453168800000000 H
atom_frac 0.1668300700000001 0.6046151200000000 0.2452794000000000 H
atom_frac 0.0172654600000001 0.8896596500000001 0.2549302000000000 H
atom_frac 0.8339990300000000 0.3945681200000000 0.7548738600000001 H
atom_frac 0.1554993300000002 0.9821592099999998 0.8503483800000000 H
atom_frac 0.0154696800000000 0.4784639500000000 0.3501405600000000 H
atom_frac 0.8444842000000000 0.0176574300000000 0.1499104600000000 H
atom_frac 0.9851912200000000 0.5208400700000000 0.6499805399999999 H
atom_frac 0.5653138400000001 0.2602767400000000 0.9456039800000000 H
atom_frac 0.2275770800000000 0.7608794899999999 0.4457631000000000 H
atom_frac 0.4346483300000000 0.7394913200000000 0.0546185500000000 H
atom_frac 0.7716097600000000 0.2394337000000000 0.5543899300000000 H
atom_frac 0.7192579099999999 0.1389851700000000 0.0607612100000000 H
atom_frac 0.0780798800000000 0.6415790799999999 0.5607402000000001 H
atom_frac 0.2806886399999996 0.8608449100000001 0.9394703000000001 H
atom_frac 0.9206381900000001 0.3590292100000000 0.4393912799999999 H
atom_frac 0.3959364399999998 0.3556212100000000 0.5977397000000001 C
atom_frac 0.6502854400000000 0.8547086900000000 0.1000874000000000 C
atom_frac 0.6037089700000000 0.6443948699999998 0.4024128800000000 C
atom_frac 0.3496706899999999 0.1454161100000000 0.9000784900000001 C
atom_frac 0.6011190799999999 0.1067176300000000 0.5045933800000000 C
atom_frac 0.7857789600000000 0.6074731499999999 0.0052256400000000 C
atom_frac 0.3982560099999999 0.8933194600000000 0.4955290600000000 C
atom_frac 0.2143915400000000 0.3928325300000000 0.9947963300000000 C
atom_frac 0.2993197599999999 0.1188094200000000 0.6576739500000000 C
atom_frac 0.9248674900000000 0.6165998899999999 0.1587444100000000 C
atom_frac 0.7003228300000001 0.8812192400000000 0.3425747800000000 C
atom_frac 0.0752415300000001 0.3835626899999999 0.8413378100000000 C
atom_frac 0.6767529100000000 0.8308115799999999 0.6682050100000000 C
atom_frac 0.8272739200000001 0.3302883799999999 0.1695082900000000 C
atom_frac 0.3240437500000000 0.1690949700000000 0.3312842800000000 C
atom_frac 0.1727841500000001 0.6696938299999999 0.8299173800000000 C
atom_frac 0.9625643000000002 0.9184211100000000 0.6397575700000000 C
atom_frac 0.4833857799999998 0.4145304300000001 0.1397156900000000 C
atom_frac 0.0375313599999999 0.0820456800000000 0.3602004600000001 C
atom_frac 0.5163893699999998 0.5858397700000000 0.8601446600000000 C
atom_frac 0.7383554299999999 0.8907890500000000 0.8254310200000001 C
atom_frac 0.5485825800000002 0.3881487300000000 0.3258050700000000 C
atom_frac 0.2616406400000000 0.1089825000000000 0.1744125100000000 C
atom_frac 0.4521338200000000 0.6115570200000000 0.6739705499999999 C
atom_frac 0.9275377199999999 0.1109145800000000 0.8163321900000000 C
atom_frac 0.1483722600000001 0.6072588599999998 0.3163511300000000 C
atom_frac 0.0724401200000001 0.8888297499999999 0.1839107200000000 C
atom_frac 0.8520236000000002 0.3922275400000000 0.6838041999999999 C
atom_frac 0.0237297700000000 0.0391170200000000 0.8761667600000000 C
atom_frac 0.0633094900000000 0.5365002499999999 0.3760699600000000 C
atom_frac 0.9762449899999999 0.9606804500000000 0.1240848600000000 C
atom_frac 0.9369381199999999 0.4630873600000000 0.6240705000000000 C
atom_frac 0.6962677500000001 0.1943249100000000 0.9279537800000000 C
atom_frac 0.1812613799999999 0.6939924300000000 0.4280859800000000 C
atom_frac 0.3036933499999999 0.8054451700000003 0.0722690400000000 C
atom_frac 0.8182464199999999 0.3061023800000000 0.5720665900000000 C
atom_frac 0.7844171800000000 0.1256373800000000 0.9916358500000000 C
atom_frac 0.0972091299999999 0.6264044900000000 0.4916507700000000 C
atom_frac 0.2155372600000000 0.8741739900000000 0.0085975500000000 C
atom_frac 0.9020928000000001 0.3738230499999999 0.5084907100000001 C
atom_frac 0.9527841799999999 0.0401019700000000 0.9676251399999999 C
atom_frac 0.0396962399999999 0.5396985300000000 0.4675906400000001 C
atom_frac 0.0471777099999999 0.9597157800000000 0.0326244500000000 C
atom_frac 0.9600251899999999 0.4602437600000001 0.5325554900000000 C
atom_frac 0.6143862900000001 0.1163316900000000 0.6907804300000000 N
atom_frac 0.5793833399999999 0.6146070400000000 0.1915780200000000 N
atom_frac 0.3854375100000001 0.8836390599999999 0.3092792600000001 N
atom_frac 0.4207963099999999 0.3853842300000000 0.8084400800000000 N
atom_frac 0.7628519799999999 0.1845349000000000 0.8402696900000001 N
atom_frac 0.2142383200000000 0.6820034000000000 0.3404796700000000 N
atom_frac 0.2371129900000001 0.8151943399999999 0.1599538700000000 N
atom_frac 0.7858339100000000 0.3177152700000000 0.6596881999999999 N
