#=======================================================
# FHI-aims file: ./geometry.in
# Created using the Atomic Simulation Environment (ASE)
# Wed Feb  9 14:46:26 2022
#=======================================================
lattice_vector 6.6630460800000000 -0.0000405300000000 0.0002253300000000 
lattice_vector -0.0000393200000000 7.2733044800000002 0.0002758200000000 
lattice_vector -0.0000987600000000 -0.0002797300000000 16.3348167800000006 
atom_frac 0.2499961000000000 1.0128591800000000 0.3216204300000000 Cu
    initial_moment         1.000000
atom_frac 0.2499994700000000 0.5128692600000000 0.1783897900000000 Cu
    initial_moment         1.000000
atom_frac 0.7500017200000000 0.4876183400000000 0.8216669199999999 Cu
    initial_moment         1.000000
atom_frac 0.7500026999999999 -0.0123691400000000 0.6782859499999999 Cu
    initial_moment        -1.000000
atom_frac 0.5654372700000000 -0.0147154600000000 0.4428379400000000 H
atom_frac 0.5654267700000000 0.4856985900000000 0.0571699800000000 H
atom_frac 0.9345636200000000 -0.0147174800000000 0.4428384300000000 H
atom_frac 0.0654161300000000 0.5145671300000000 0.9428203600000000 H
atom_frac 0.4345830400000000 1.0150117299999999 0.5571341100000000 H
atom_frac 0.4345961800000000 0.5145652400000000 0.9428207600000000 H
atom_frac 0.0654139300000000 1.0150136299999999 0.5571336499999999 H
atom_frac 0.9345625600000000 0.4856967500000000 0.0571702100000000 H
atom_frac 0.5672665900000000 0.9225031100000000 0.1887154100000000 H
atom_frac 0.5672698700000000 0.4222756499999999 0.3112602200000000 H
atom_frac 0.9327152200000000 0.9225030300000001 0.1887158300000000 H
atom_frac 0.0672127700000000 0.5783020300000001 0.6887495100000000 H
atom_frac 0.4327859600000000 0.0780587700000000 0.8112398700000000 H
atom_frac 0.4327853500000000 0.5783003400000000 0.6887501300000000 H
atom_frac 0.0672303200000000 0.0780592000000000 0.8112393800000000 H
atom_frac 0.9327347099999999 0.4222743800000000 0.3112606800000000 H
atom_frac 0.2500017500000000 0.4167121300000001 0.4054603700000000 C
atom_frac 0.2499978200000000 0.9167555500000001 0.0945583000000000 C
atom_frac 0.7500065400000000 0.0834192700000000 0.9054000000000000 C
atom_frac 0.7499981500000000 0.5834741000000000 0.5945426699999999 C
atom_frac 0.2499981800000000 0.5328151900000000 0.4818276200000000 C
atom_frac 0.2500017400000000 1.0328462800000000 1.0181864199999997 C
atom_frac 0.7500030900000000 -0.0328530700000000 0.9817287999999997 C
atom_frac 0.7500007800000000 0.4671890799999999 0.5182187600000000 C
atom_frac 0.2499984800000000 0.7001661700000000 0.4292309300000000 C
atom_frac 0.2499967000000000 0.2002052100000000 0.0707792700000000 C
atom_frac 0.7500053499999999 0.7999665900000000 0.9290556100000000 C
atom_frac 0.7500003900000000 0.3000168300000000 0.5708957900000000 C
atom_frac 0.2500005600000000 0.5865982999999999 0.3556779700000000 C
atom_frac 0.2499960600000000 0.0866478200000000 0.1443357000000000 C
atom_frac 0.7500055700000000 0.9136262300000001 0.8555594199999998 C
atom_frac 0.7499988000000000 0.4136868200000000 0.6443884799999999 C
atom_frac 0.6457182299999999 0.9713362100000001 0.3851816800000000 C
atom_frac 0.6457169699999998 0.4715843700000000 0.1148176900000000 C
atom_frac 0.8542782299999999 0.9713354499999999 0.3851819500000000 C
atom_frac 0.1457271800000000 0.5287802900000002 0.8851838200000000 C
atom_frac 0.3542783200000000 0.0290469300000000 0.6147802000000000 C
atom_frac 0.3542815700000000 0.5287791400000000 0.8851840899999999 C
atom_frac 0.1457231300000000 0.0290477300000000 0.6147799400000000 C
atom_frac 0.8542762599999999 0.4715833900000000 0.1148178800000000 C
atom_frac 0.6457494100000000 0.9384548700000001 0.2469697200000000 C
atom_frac 0.6457562300000000 0.4383612100000001 0.2530148500000000 C
atom_frac 0.8542366200000000 0.9384546900000000 0.2469699800000000 C
atom_frac 0.1457577600000000 0.5621680299999999 0.7469801000000000 C
atom_frac 0.3542478300000000 0.0620673300000000 0.7529998900000000 C
atom_frac 0.3542431900000000 0.5621668899999999 0.7469804199999999 C
atom_frac 0.1457642800000000 0.0620676200000000 0.7529996100000000 C
atom_frac 0.8542452500000000 0.4383603200000000 0.2530150899999999 C
atom_frac 0.5387522400000000 0.9510171800000000 0.3164373600000000 N
atom_frac 0.5387613400000000 0.4510793100000000 0.1835524100000000 N
atom_frac 0.9612387800000000 0.9510164400000000 0.3164378100000000 N
atom_frac 0.0388264000000000 0.5493394600000000 0.8164459599999999 N
atom_frac 0.4611864700000000 0.0494056100000000 0.6835280500000001 N
atom_frac 0.4611785400000000 0.5493370300000000 0.8164464900000000 N
atom_frac 0.0388205000000000 0.0494065500000000 0.6835276099999998 N
atom_frac 0.9612359900000000 0.4510773400000000 0.1835528100000000 N
atom_frac 0.2500050800000000 0.2481976200000000 0.3951329699999999 O
atom_frac 0.2499960000000000 0.7482453000000001 0.1048939100000000 O
atom_frac 0.7500086800000000 0.2519614700000000 0.8951446600000000 O
atom_frac 0.7499958000000000 0.7520207900000000 0.6047887500000000 O
atom_frac 0.2499973200000000 0.5019081800000000 0.5551787100000000 O
atom_frac 0.2500068500000000 1.0019281600000001 0.9448363399999999 O
atom_frac 0.7499989900000000 -0.0020984400000000 0.0550954100000000 O
atom_frac 0.7500014000000000 0.4979321799999999 0.4448510800000000 O
atom_frac 0.2499985800000000 0.8694932799999999 0.4394411500000000 O
atom_frac 0.2499946200000000 0.3695318900000000 0.0605646700000000 O
atom_frac 0.7500064600000000 0.6305643900000000 0.9392158399999999 O
atom_frac 0.7500002099999999 0.1306143600000000 0.5607399799999999 O
atom_frac 0.2500018100000000 0.6414684699999998 0.2826367500000000 O
atom_frac 0.2499948400000000 0.1415180300000000 0.2173783700000000 O
atom_frac 0.7500042300000000 0.8588928000000000 0.7824798099999999 O
atom_frac 0.7499975600000000 0.3589509600000000 0.7174661700000000 O
