#=======================================================
# FHI-aims file: ./geometry.in
# Created using the Atomic Simulation Environment (ASE)
# Fri Jan 14 15:06:22 2022
#=======================================================
lattice_vector 9.2611658569999999 0.0034208750000000 0.0022038450000000 
lattice_vector -4.6275238270000001 9.9843635909999993 -3.1470677870000001 
lattice_vector 0.0040576750000000 -0.3013320240000000 17.2279283280000008 
atom_frac 0.6620862530263593 0.9661134518441371 0.9247702384223544 Ce
atom_frac 0.6958575660575973 0.0339677526851148 0.5752685447354081 Ce
atom_frac 0.3379721334309096 0.0338109723050835 0.0751901539714837 Ce
atom_frac 0.3042255043758856 0.9661293174661832 0.4247709793013143 Ce
atom_frac 0.0850386977987370 0.3329868019756148 0.1347756144371104 Cu
atom_frac 0.7519143621338742 0.6666447043838771 0.3648975577415214 Cu
atom_frac 0.9145449062486432 0.6668041524568123 0.8650379819026026 Cu
atom_frac 0.2478458385973354 0.3334135262095756 0.6352451987210300 Cu
atom_frac 0.5834229379826824 0.1990612612654132 0.7797904224740150 H
atom_frac 0.5218628531013465 0.3091805250424216 0.6880317668041585 H
atom_frac 0.0741344151815681 0.2353677884456501 0.7612572303913794 H
atom_frac 0.1231381169462793 0.1311407939095020 0.8612380611449452 H
atom_frac 0.1743535511996157 0.7322988645990590 0.0574932690789325 H
atom_frac 0.0768010847469895 0.5737420472975856 0.1349074487170725 H
atom_frac 0.2852744387385044 0.3328002147549752 0.9998414090637412 H
atom_frac 0.4043089632971544 0.4921190228386791 0.9192794739062435 H
atom_frac 0.3844334359515215 0.8009713964651721 0.7202179979035676 H
atom_frac 0.2129810470604028 0.6910062974177932 0.8121164666829229 H
atom_frac 0.8389982100860889 0.7647956543645048 0.7389788547463566 H
atom_frac 0.9920357713602286 0.8687734920202954 0.6388436594534922 H
atom_frac 0.4415705145829136 0.2678093009885315 0.4426545505668784 H
atom_frac 0.5026773417387388 0.4259684117298192 0.3649233688574398 H
atom_frac 0.9519451469162236 0.6665787798479953 0.4996196003448503 H
atom_frac 0.9116289804562643 0.5076348465924384 0.5804210462175874 H
atom_frac 0.4165855355856890 0.8009793396695526 0.2201360555820883 H
atom_frac 0.4780012635749386 0.6909278084289737 0.3119802396449031 H
atom_frac 0.9258663572149288 0.7647354435818483 0.2389523415558300 H
atom_frac 0.8770163806609119 0.8688442935483209 0.1388750309629927 H
atom_frac 0.8256447373581963 0.2676392251863290 0.9424214497518830 H
atom_frac 0.9230176318831909 0.4261326772439060 0.8649632126417899 H
atom_frac 0.7146005988195724 0.6670813929899424 0.0000920304634916 H
atom_frac 0.5956534339582330 0.5077775348987212 0.0806857080395815 H
atom_frac 0.6155170345948378 0.1990699523655407 0.2798653464603689 H
atom_frac 0.7867011467862780 0.3088264867109061 0.1878231705580262 H
atom_frac 0.1608503771575656 0.2351085219410932 0.2608060517205644 H
atom_frac 0.0081063141613456 0.1313616434219043 0.3610971680959310 H
atom_frac 0.5584074127236106 0.7321529898046460 0.5573980958800674 H
atom_frac 0.4971755784970424 0.5740354756644804 0.6351786847383777 H
atom_frac 0.0479496544491695 0.3334591649083051 0.5004166930823003 H
atom_frac 0.0884408961919192 0.4923947190279421 0.4195719015714090 H
atom_frac 0.3907128200767857 0.0870769997194643 0.8834275288674648 C
atom_frac 0.3572712483720579 0.1547926703718474 0.8276866135414168 C
atom_frac 0.4703854826390099 0.2069264971623639 0.7786046471415559 C
atom_frac 0.4360511321259111 0.2674996055327837 0.7267564714760866 C
atom_frac 0.1859695629431215 0.2269233013454083 0.7684245552714798 C
atom_frac 0.2139652429029510 0.1681608809867682 0.8233486856514530 C
atom_frac 0.3902437723250215 0.7358561064720204 0.9461984460003449 C
atom_frac 0.3036510281717353 0.6285892070302451 0.9830748841330175 C
atom_frac 0.2041034816113410 0.6466820879613309 0.0420377041990889 C
atom_frac 0.1467893470840806 0.5567875507618750 0.0855584395391915 C
atom_frac 0.2654825112606857 0.4235332854413229 0.0105481560852709 C
atom_frac 0.3302103287690841 0.5116001451570468 0.9658829713855682 C
atom_frac 0.9811357732003073 0.9269305125587125 0.9739343330342648 C
atom_frac 0.7096355781018673 0.9234785459209360 0.7285423655166667 C
atom_frac 0.3036206115409997 0.9128105413316093 0.6165324881360945 C
atom_frac 0.2024903765255316 0.8450836955801432 0.6723001859399957 C
atom_frac 0.2634990458031438 0.7930257780258356 0.7214271462362162 C
atom_frac 0.1686929833499632 0.7325930511223644 0.7733743701107015 C
atom_frac 0.9592466865218939 0.7731504121194204 0.7317718349793267 C
atom_frac 0.0458650778576626 0.8317882801028701 0.6767402789483794 C
atom_frac 0.6536455826887604 0.2641559153995843 0.5539230171419119 C
atom_frac 0.6744883728550803 0.3713402896645945 0.5168843534900134 C
atom_frac 0.5569316735990312 0.3532914981286480 0.4579531997050806 C
atom_frac 0.5895695450163672 0.4429587677118719 0.4142547968081658 C
atom_frac 0.8414244467674122 0.5759723158971679 0.4890135013396558 C
atom_frac 0.8180627853469459 0.4881036525583295 0.5338391374171606 C
atom_frac 0.0541221507714695 0.0730690987706097 0.5261093474253471 C
atom_frac 0.7861548424708645 0.0763909268422154 0.7714882839432136 C
atom_frac 0.6094458282670699 0.9129292479399493 0.1165570848467609 C
atom_frac 0.6428294624413124 0.8452489316564563 0.1723404539296850 C
atom_frac 0.5296195509847976 0.7931202472943041 0.2213926079480544 C
atom_frac 0.5638999491405485 0.7325926335505740 0.2732874110176695 C
atom_frac 0.8140279168957816 0.7731451996100557 0.2317293341953074 C
atom_frac 0.7861344410215595 0.8318635943054461 0.1767414249925068 C
atom_frac 0.6098063506156350 0.2640733913793696 0.0537640351818567 C
atom_frac 0.6963393338403776 0.3713287224921443 0.0168686583465387 C
atom_frac 0.7958652414310592 0.3532443847039913 0.9578899880600600 C
atom_frac 0.8531088926046521 0.4431253430732624 0.9143499481257962 C
atom_frac 0.7344117008872855 0.5763521150965756 0.9893784279408774 C
atom_frac 0.6697501960407094 0.4883121043582290 0.0340711463869496 C
atom_frac 0.0189132530612000 0.0729989504439530 0.0260269810166349 C
atom_frac 0.2903737597990812 0.0765249437885061 0.2714487289304301 C
atom_frac 0.6965295791575699 0.0873474081584362 0.3835338205188634 C
atom_frac 0.7975565250355101 0.1550036361053770 0.3277149261132664 C
atom_frac 0.7364402606467022 0.2069866914165743 0.2785952006143332 C
atom_frac 0.8310773825571616 0.2673038231754531 0.2265659347548734 C
atom_frac 0.0406339427029110 0.2267768930517633 0.2680828835665281 C
atom_frac 0.9541520529476059 0.1682545258223200 0.3231929857725148 C
atom_frac 0.3464634309915837 0.7358893568615699 0.4461261964727115 C
atom_frac 0.3255424769227062 0.6286544249058394 0.4831480887396039 C
atom_frac 0.4430472376194101 0.6466749264880461 0.5421036844687136 C
atom_frac 0.4103198269188866 0.5570121569598639 0.5858174321769097 C
atom_frac 0.1585165817530266 0.4240263175179704 0.5110150246223455 C
atom_frac 0.1819553919366044 0.5118872876091912 0.4661676574818472 C
atom_frac 0.9460197582439562 0.9270938570063053 0.4739236300818702 C
atom_frac 0.2139328195730598 0.9236223923383804 0.2285307164359622 C
atom_frac 0.2946115565828861 0.2751854167095614 0.7197677890277419 N
atom_frac 0.1779668701628481 0.4468374863331021 0.0715713244442711 N
atom_frac 0.0196014803001389 0.7249253617272016 0.7804528669528989 N
atom_frac 0.7306710045287089 0.5527302281135604 0.4280630305485786 N
atom_frac 0.7053223235009864 0.7249135343831410 0.2803655505979349 N
atom_frac 0.8218771152191379 0.5530510970227310 0.9283274052307887 N
atom_frac 0.9801372331955492 0.2749361924553071 0.2194119160614534 N
atom_frac 0.2691919197144017 0.4472677218170061 0.5720083340614224 N
atom_frac 0.4914318626803079 0.0373198649664630 0.8641837150553187 O
atom_frac 0.3177753344149181 0.0857365037832665 0.9457723500719977 O
atom_frac 0.4863203791467185 0.7201773967758385 0.8956785179158047 O
atom_frac 0.3759494439702705 0.8484918611914477 0.9700506382083985 O
atom_frac 0.8616388715449972 0.8673206976063950 0.9184312709381643 O
atom_frac 0.0710995805889710 0.8756301996744044 0.9893854082595509 O
atom_frac 0.6486910735090562 0.8488037193565249 0.7723176562366446 O
atom_frac 0.7181646594602711 0.8860222777134579 0.6523877526757288 O
atom_frac 0.4539787866900155 0.9627660887917385 0.6358756222458126 O
atom_frac 0.2321126685733006 0.9139471843972939 0.5541230507197169 O
atom_frac 0.7651068960311916 0.2799326818621140 0.6046055422508658 O
atom_frac 0.5269631989402938 0.1515095818876162 0.5300114677473361 O
atom_frac 0.9940828114068553 0.1326013599936076 0.5816534915477051 O
atom_frac 0.1953316341294169 0.1243474127683086 0.5106260653625511 O
atom_frac 0.7997036979519904 0.1510378826043635 0.7277116431688881 O
atom_frac 0.8323859152976141 0.1138974872550591 0.8476079297294348 O
atom_frac 0.5087404672919078 0.9627007800866707 0.1357803088020475 O
atom_frac 0.6823702496905426 0.9141744420976322 0.0542070458142945 O
atom_frac 0.5137551526334860 0.2797575858159931 0.1043000537009249 O
atom_frac 0.6241642473204507 0.1514546474492136 0.0299120399802035 O
atom_frac 0.1383986814935696 0.1326160658385759 0.0815395045098910 O
atom_frac 0.9289654197661645 0.1243117689942251 0.0105590332446113 O
atom_frac 0.3512747720480931 0.1511364633907135 0.2276328566943420 O
atom_frac 0.2818948505756608 0.1140384064985227 0.3476073982315314 O
atom_frac 0.5461533148915834 0.0373622110599499 0.3642700186664953 O
atom_frac 0.7681779105686601 0.0862842564838147 0.4459241594691505 O
atom_frac 0.2350600037902382 0.7201895370441491 0.3954385650467174 O
atom_frac 0.4731749342920962 0.8485097211084918 0.4700736299721980 O
atom_frac 0.0059962803559584 0.8675071804260167 0.4183678124503841 O
atom_frac 0.8048322550433012 0.8758638916121408 0.4894494075554831 O
atom_frac 0.2004062773792583 0.8490028147701520 0.2723187405788181 O
atom_frac 0.1677937144880487 0.8860924247739914 0.1523998176092362 O
