#=======================================================
# FHI-aims file: ./geometry.in
# Created using the Atomic Simulation Environment (ASE)
# Wed Feb  9 14:46:29 2022
#=======================================================
lattice_vector 8.6020111200000002 0.0435187400000000 -0.0000551200000000 
lattice_vector -2.1869215299999998 8.9902113099999994 -0.0000282300000000 
lattice_vector 0.0000084900000000 0.0000276000000000 15.0211936300000009 
atom_frac 0.8313732900000000 0.0258078300000000 0.4512463200000000 K
atom_frac 0.6686273000000000 0.9741921100000001 0.9512466900000000 K
atom_frac 0.1686277500000000 0.9741917600000001 0.5487539399999999 K
atom_frac 0.3313738000000000 0.0258086400000000 0.0487552800000000 K
atom_frac 0.8476535300000000 0.6534759900000001 0.4302330000000000 H
atom_frac 0.6523441700000000 0.3465241200000000 0.9302339199999999 H
atom_frac 0.1523464200000000 0.3465241500000000 0.5697668400000000 H
atom_frac 0.3476557800000000 0.6534771200000001 0.0697672500000000 H
atom_frac 0.9207004199999999 0.4735965400000000 0.3230209300000000 H
atom_frac 0.5793002200000000 0.5264039400000001 0.8230213500000000 H
atom_frac 0.0793007700000000 0.5264031599999999 0.6769797000000000 H
atom_frac 0.4207007000000000 0.4735963500000001 0.1769787800000000 H
atom_frac 0.1643207400000000 0.5656464000000001 0.2237420800000000 H
atom_frac 0.3356821300000000 0.4343548100000000 0.7237425100000000 H
atom_frac 0.8356799700000000 0.4343536000000000 0.7762581300000001 H
atom_frac 0.6643194400000000 0.5656449400000000 0.2762574100000000 H
atom_frac 0.3017863200000001 0.8285817800000002 0.2285566700000000 H
atom_frac 0.1982176400000000 0.1714186000000000 0.7285566300000000 H
atom_frac 0.6982147700000000 0.1714175600000000 0.7714438200000000 H
atom_frac 0.8017842700000001 0.8285810700000001 0.2714435300000000 H
atom_frac 0.4247283000000000 0.0384540700000000 0.2483381900000000 H
atom_frac 0.0752752700000001 0.9615473200000003 0.7483380700000000 H
atom_frac 0.5752740200000002 0.9615461400000004 0.7516628300000000 H
atom_frac 0.9247266099999999 0.0384533000000000 0.2516623200000000 H
atom_frac 0.5295775100000000 0.3070186900000000 0.2481112000000000 H
atom_frac 0.9704248500000000 0.6929831100000000 0.7481112800000000 H
atom_frac 0.4704229100000000 0.6929819300000001 0.7518892400000000 H
atom_frac 0.0295768700000000 0.3070175400000000 0.2518889300000000 H
atom_frac 0.3769502599999999 0.4727268300000000 0.3316834599999999 H
atom_frac 0.1230487600000000 0.5272736600000000 0.8316841500000000 H
atom_frac 0.6230486300000000 0.5272731500000001 0.6683162800000000 H
atom_frac 0.8769518200000002 0.4727269400000001 0.1683166600000000 H
atom_frac 0.1377795200000000 0.3486470400000000 0.4187892700000000 H
atom_frac 0.3622190400000000 0.6513518800000000 0.9187889999999999 H
atom_frac 0.8622207300000000 0.6513519800000002 0.5812115299999999 H
atom_frac 0.6377813300000000 0.3486485500000001 0.0812122300000000 H
atom_frac 0.8274315600000000 0.3471347800000000 0.4242032600000000 H
atom_frac 0.6725702300000000 0.6528656900000002 0.9242026100000000 H
atom_frac 0.1725687100000000 0.6528649300000000 0.5757972299999999 H
atom_frac 0.3274303300000000 0.3471356000000000 0.0757939600000000 H
atom_frac 0.6439488499999999 0.2791968799999999 0.3887642200000000 H
atom_frac 0.8560537800000000 0.7208025200000001 0.8887634000000000 H
atom_frac 0.3560515100000001 0.7208020900000001 0.6112364000000000 H
atom_frac 0.1439483500000000 0.2791962100000001 0.1112348600000000 H
atom_frac 0.6445219400000000 0.4786622100000000 0.4967123900000000 H
atom_frac 0.8554772100000000 0.5213385399999999 0.9967134700000000 H
atom_frac 0.3554778900000000 0.5213370700000001 0.5032878800000000 H
atom_frac 0.1445179600000000 0.4786625900000001 0.0032883000000000 H
atom_frac 0.7399441700000000 0.3772304399999999 0.5718351399999999 H
atom_frac 0.7600533299999999 0.6227716200000000 0.0718350600000000 H
atom_frac 0.2600558900000000 0.6227693999999999 0.4281653700000000 H
atom_frac 0.2399414300000000 0.3772340200000001 0.9281635199999999 H
atom_frac 0.4440798500000001 0.3399569900000001 0.5957880600000001 H
atom_frac 0.0559160600000000 0.6600446400000001 0.0957891100000000 H
atom_frac 0.5559197500000000 0.6600424100000001 0.4042119700000000 H
atom_frac 0.9440753500000000 0.3399594400000001 0.9042148499999999 H
atom_frac 0.4108989800000000 0.2694809100000000 0.4860879799999999 H
atom_frac 0.0891021600000000 0.7305178000000001 0.9860883100000000 H
atom_frac 0.5891015700000001 0.7305173400000001 0.5139122699999999 H
atom_frac 0.9108975400000000 0.2694770000000001 0.0139139400000000 H
atom_frac 0.5627828200000000 0.0830988100000000 0.5412988300000000 H
atom_frac 0.9372267599999999 0.9169071600000002 0.0412915000000000 H
atom_frac 0.4372196400000000 0.9169013100000001 0.4587032599999999 H
atom_frac 0.0627906900000000 0.0831038000000000 0.9586931000000000 H
atom_frac 0.5273397000000000 0.1344785500000000 0.6419555200000000 H
atom_frac 0.9726496000000000 0.8655257600000003 0.1419510100000000 H
atom_frac 0.4726594600000000 0.8655219100000001 0.3580459700000000 H
atom_frac 0.0273312500000000 0.1344855800000000 0.8580397500000000 H
atom_frac 0.9468129400000000 0.6909479500000000 0.3830949400000001 C
atom_frac 0.5531862600000000 0.3090521300000000 0.8830955900000002 C
atom_frac 0.0531877300000000 0.3090519100000000 0.6169053100000000 C
atom_frac 0.4468142300000000 0.6909486600000001 0.1169053200000000 C
atom_frac 0.9880746600000001 0.5888742500000002 0.3247316000000000 C
atom_frac 0.5119261599999999 0.4111261400000000 0.8247319600000002 C
atom_frac 0.0119264800000000 0.4111254600000000 0.6752689800000000 C
atom_frac 0.4880746899999999 0.5888742100000000 0.1752684800000000 C
atom_frac 0.1211597500000000 0.6408816899999999 0.2687263400000000 C
atom_frac 0.3788424399999999 0.3591190600000000 0.7687265700000000 C
atom_frac 0.8788412700000000 0.3591180500000000 0.7312741800000000 C
atom_frac 0.6211588400000000 0.6408809700000000 0.2312736700000000 C
atom_frac 0.1990495700000000 0.7885067200000000 0.2722153500000001 C
atom_frac 0.3009529499999999 0.2114939800000000 0.7722155000000002 C
atom_frac 0.8009515699999998 0.2114930000000000 0.7277852299999999 C
atom_frac 0.6990484800000001 0.7885060500000001 0.2277849200000000 C
atom_frac 0.1429156100000000 0.8883569400000001 0.3290915300000000 C
atom_frac 0.3570857900000000 0.1116432400000000 0.8290916799999999 C
atom_frac 0.8570858300000000 0.1116426800000000 0.6709091399999999 C
atom_frac 0.6429152800000000 0.8883572300000000 0.1709092100000000 C
atom_frac 0.2138226700000000 0.0452230500000000 0.3300497999999999 C
atom_frac 0.2861790400000000 0.9547771600000000 0.8300498000000001 C
atom_frac 0.7861792700000001 0.9547764900000002 0.6699510700000000 C
atom_frac 0.7138219800000000 0.0452232800000000 0.1699512200000000 C
atom_frac 0.3576749800000000 0.1086029300000000 0.2831731300000000 C
atom_frac 0.1423275600000000 0.8913980200000001 0.7831730499999999 C
atom_frac 0.6423267599999999 0.8913970300000000 0.7168276799999999 C
atom_frac 0.8576738800000000 0.1086025500000000 0.2168275900000000 C
atom_frac 0.4176968800000000 0.2600877600000001 0.2834519900000000 C
atom_frac 0.0823049600000000 0.7399133200000000 0.7834519400000000 C
atom_frac 0.5823037400000000 0.7399124000000001 0.7165485199999999 C
atom_frac 0.9176964000000000 0.2600872800000000 0.2165486100000000 C
atom_frac 0.3351529999999999 0.3521193600000000 0.3298813299999999 C
atom_frac 0.1648470500000000 0.6478810400000001 0.8298815700000000 C
atom_frac 0.6648468900000000 0.6478805000000001 0.6701189300000000 C
atom_frac 0.8351537800000000 0.3521195400000001 0.1701192900000000 C
atom_frac 0.2006881600000000 0.2810904100000001 0.3782390100000000 C
atom_frac 0.2993113300000000 0.7189091700000000 0.8782389699999998 C
atom_frac 0.7993123799999999 0.7189090100000000 0.6217616800000000 C
atom_frac 0.7006892700000000 0.2810912900000000 0.1217621400000000 C
atom_frac 0.6555787900000001 0.3652155600000001 0.5153242900000000 C
atom_frac 0.8444201400000001 0.6347854900000001 0.0153244000000000 C
atom_frac 0.3444213399999999 0.6347838999999998 0.4846761700000000 C
atom_frac 0.1555763100000000 0.3652170000000000 0.9846751099999999 C
atom_frac 0.4918127500000000 0.2773453900000000 0.5441103500000000 C
atom_frac 0.0081860800000000 0.7226554600000000 0.0441100100000000 C
atom_frac 0.5081875200000000 0.7226537600000001 0.4558900800000000 C
atom_frac 0.9918104499999999 0.2773458600000000 0.9558904000000000 C
atom_frac 0.0167917200000000 0.8351821400000001 0.3863863199999999 N
atom_frac 0.4832078599999999 0.1648178100000000 0.8863868799999999 N
atom_frac 0.9832089799999999 0.1648177600000000 0.6136139400000000 N
atom_frac 0.5167927300000000 0.8351829700000001 0.1136142200000000 N
atom_frac 0.1403958500000000 0.1349996300000000 0.3806240200000000 N
atom_frac 0.3596048300000000 0.8649997600000002 0.8806238499999999 N
atom_frac 0.8596061800000000 0.8649996400000000 0.6193769600000000 N
atom_frac 0.6403959200000000 0.1350006900000000 0.1193773200000000 N
atom_frac 0.7170225300000000 0.2872688500000001 0.4436283599999999 N
atom_frac 0.7829789200000001 0.7127315400000002 0.9436274900000000 N
atom_frac 0.2829779400000000 0.7127305500000001 0.5563722500000000 N
atom_frac 0.2170213500000000 0.2872692400000000 0.0563698400000000 N
atom_frac 0.4849535400000000 0.1281885300000001 0.5779167300000000 N
atom_frac 0.0150464100000000 0.8718136000000000 0.0779141800000000 N
atom_frac 0.5150473400000000 0.8718111200000002 0.4220843800000000 N
atom_frac 0.9849534899999999 0.1281913900000000 0.9220806700000000 N
