#=======================================================
# FHI-aims file: ./geometry.in
# Created using the Atomic Simulation Environment (ASE)
# Wed Feb  9 14:46:30 2022
#=======================================================
lattice_vector 4.5453074899999999 -0.4067215700000000 0.0005061100000000 
lattice_vector -1.8287953900000000 7.7281783099999997 -0.0043836900000000 
lattice_vector -0.0014575300000000 0.0079075500000000 16.9861898800000013 
atom_frac 0.5009416900000000 0.4997747400000001 0.5001655900000000 Cu
    initial_moment         1.000000
atom_frac 1.0009770400000000 -0.0002467300000000 0.0001680600000000 Cu
    initial_moment         1.000000
atom_frac 0.9196225599999999 0.6082613900000000 0.6287616300000000 H
atom_frac 0.5822807100000000 0.8913055400000001 0.1287588600000000 H
atom_frac 0.0822784900000000 0.3912933200000000 0.3715661300000000 H
atom_frac 0.4196697400000000 0.1082086600000000 0.8715739900000000 H
atom_frac 0.9604621800000001 0.8660399600000003 0.7967347100000000 H
atom_frac 0.5414043100000000 0.6335352700000000 0.2967396600000000 H
atom_frac 0.0414391400000000 0.1335145200000000 0.2035895000000000 H
atom_frac 0.4605307000000000 0.3659974000000000 0.7035981500000001 H
atom_frac 0.6898763900000001 1.0490871700000000 0.7330509500000001 H
atom_frac 0.8119284199999999 0.4504620500000000 0.2330699000000000 H
atom_frac 0.3120067900000000 -0.0495316300000000 0.2672695600000000 H
atom_frac 0.1900057700000000 0.5490562400000001 0.7672725900000000 H
atom_frac 0.3258524500000000 0.0305007000000000 0.6216960200000000 H
atom_frac 0.1759598600000001 0.4690209500000001 0.1217240400000000 H
atom_frac 0.6760320399999999 0.9690469500000000 0.3786245600000000 H
atom_frac 0.8259796000000000 0.5304872400000001 0.8786230700000000 H
atom_frac 0.2708466000000000 0.7991003400000001 0.5170714500000000 H
atom_frac 0.2309945500000000 0.7003995900000000 0.0170906700000000 H
atom_frac 0.7310215400000000 0.2004347300000000 0.4832551800000000 H
atom_frac 0.7709545300000000 0.2990988000000001 0.9832505899999999 H
atom_frac 0.8044250300000000 0.7104869399999999 0.6263426700000000 C
atom_frac 0.6974581700000000 0.7890697600000000 0.1263469400000000 C
atom_frac 0.1974645300000000 0.2890625499999999 0.3739829700000000 C
atom_frac 0.3044894000000000 0.2104430000000000 0.8739884999999999 C
atom_frac 0.8319957900000000 0.8297535600000001 0.6893656200000001 C
atom_frac 0.6698536300000001 0.6698060300000002 0.1893730200000000 C
atom_frac 0.1698921800000000 0.1698004700000000 0.3109584800000000 C
atom_frac 0.3320833600000000 0.3297107600000000 0.8109643900000000 C
atom_frac 0.6591283600000000 0.9467346600000001 0.6879704200000000 C
atom_frac 0.8426959200000000 0.5528102399999999 0.1879859500000000 C
atom_frac 0.3427565400000000 0.0528170500000000 0.3123520300000000 C
atom_frac 0.1592388700000000 0.4467049900000001 0.8123551400000000 C
atom_frac 0.4589065300000001 0.9375790600000001 0.6254905200000002 C
atom_frac 1.0429153000000002 0.5619485400000001 0.1255116000000000 C
atom_frac 0.5429761600000000 0.0619678700000000 0.3748315800000000 C
atom_frac -0.0409767800000000 0.4375597700000001 0.8748310600000001 C
atom_frac 0.4310653800000000 0.8126290400000000 0.5664515000000000 C
atom_frac 1.0707885500000001 0.6868962300000001 0.0664690600000000 C
atom_frac 0.5708150500000000 0.1869126000000000 0.4338730000000000 C
atom_frac -0.0688416400000000 0.3126076900000000 0.9338712000000000 C
atom_frac 0.8500244100000001 0.6676328500000002 0.3982503900000000 Br
atom_frac 0.6518796900000001 0.8318851000000002 0.8982538100000002 Br
atom_frac 0.1518767700000000 0.3319196200000001 0.6020843400000000 Br
atom_frac 0.3500616999999999 0.1676265900000000 0.1020832500000000 Br
atom_frac 0.6014216800000000 0.7024158000000001 0.5681996000000000 N
atom_frac 0.9004581800000001 0.7971236200000001 0.0682093000000000 N
atom_frac 0.4004614600000000 0.2971269000000000 0.4321272600000000 N
atom_frac 0.1014924800000000 0.2023826700000000 0.9321276300000000 N
atom_frac 1.0311366700000000 0.8249296300000000 0.7463465700000000 O
atom_frac 0.4707217300000000 0.6746450300000000 0.2463502200000001 O
atom_frac -0.0292436800000000 0.1746267400000000 0.2539763800000000 O
atom_frac 0.5312100000000000 0.3248773800000000 0.7539848600000000 O
