#=======================================================
# FHI-aims file: ./geometry.in
# Created using the Atomic Simulation Environment (ASE)
# Tue Nov 30 12:20:15 2021
#=======================================================
lattice_vector 9.8635377589999997 0.0637830380000000 -0.0000159710000000 
lattice_vector -3.5297178279999999 17.2095948969999988 0.0000101370000000 
lattice_vector -0.0000312120000000 0.0000048230000000 19.7394839950000005 
atom_frac 0.4391470861922357 0.9601212204962906 0.5407338552301012 Co
atom_frac 0.0608506128944128 0.0398335098052129 0.0406328031804719 Co
atom_frac 0.5608649566978984 0.0398355753134894 0.4593655313410351 Co
atom_frac 0.9391356759229054 0.9601193140133758 0.9592659702250969 Co
atom_frac 0.6431143640584551 0.4422305181798266 0.4443528407586824 Co
atom_frac 0.8569126827586616 0.5577446191115172 0.9444126318913533 Co
atom_frac 0.3569048690823208 0.5577378724512910 0.5555819011842829 Co
atom_frac 0.1431228281137394 0.4422324272239564 0.0556447069833652 Co
atom_frac 0.8359381493994037 0.5462393986049179 0.5304747487924074 H
atom_frac 0.6640637775198286 0.4537465230560969 0.0305051543539108 H
atom_frac 0.1640526555331974 0.4537430430879824 0.4694924154470925 H
atom_frac 0.3359554290538895 0.5462416240663970 0.9695293875534147 H
atom_frac 0.6772241725134549 0.5583136671079673 0.5284021182602174 H
atom_frac 0.8227642694066545 0.4416374414202978 0.0284363392493745 H
atom_frac 0.3227496814536295 0.4416299056395730 0.4715625129912553 H
atom_frac 0.1772412830121013 0.5583182163198401 0.9716007356578727 H
atom_frac 0.8442508277279971 0.3757141790105011 0.4767870161803245 H
atom_frac 0.6557742870948715 0.6242946494016834 0.9768109515821377 H
atom_frac 0.1557707662859471 0.6242919724865814 0.5231912932467323 H
atom_frac 0.3442562376545056 0.3757137932676217 0.0232139649456755 H
atom_frac 0.7489303363096128 0.3672037820737089 0.5419375826405286 H
atom_frac 0.7510494107409827 0.6328077824972598 0.0419755440642504 H
atom_frac 0.2510303262828942 0.6328049195402913 0.4580224891771251 H
atom_frac 0.2489390047045888 0.3672019783784466 0.9580620374002036 H
atom_frac 0.4766812507428923 0.7266384601947705 0.4738001383172517 H
atom_frac 0.0232495491850102 0.2733058160004518 0.9738252330043975 H
atom_frac 0.5232492221065358 0.2733000436898864 0.5261761446753964 H
atom_frac 0.9766874915744523 0.7266425417388548 0.0261991768797714 H
atom_frac 0.6969705066948890 0.6334514927180309 0.3166306024818724 H
atom_frac 0.8030287816088730 0.3665871558114376 0.8166596002794151 H
atom_frac 0.3030337436929713 0.3665855198355531 0.6833370683393339 H
atom_frac 0.1969704323347088 0.6334527807471488 0.1833698755965827 H
atom_frac 0.6965342247374197 0.8806628773460761 0.3257563469590820 H
atom_frac 0.8034269048219188 0.1193596375240205 0.8257015039355122 H
atom_frac 0.3034302019333809 0.1193591749274249 0.6743020050327218 H
atom_frac 0.1965306675524730 0.8806659266118049 0.1742448897018818 H
atom_frac 0.9037527821990353 0.6830209942741521 0.2662960952466307 H
atom_frac 0.5963196150290669 0.3170528568561294 0.7663080916242464 H
atom_frac 0.0963121123632646 0.3170494956426637 0.7336862669732652 H
atom_frac 0.4037516139024009 0.6830240013582201 0.2337061863253993 H
atom_frac 0.9300212201926430 0.7357680165984138 0.1902019017234480 H
atom_frac 0.5699534594014466 0.2643230904121978 0.6902184690711550 H
atom_frac 0.0699515107083286 0.2643225713210172 0.8097794472138489 H
atom_frac 0.4300125995031792 0.7357686843666331 0.3098023945708519 H
atom_frac 0.8616790365581083 0.5574035022663395 0.2125429475532030 H
atom_frac 0.6383682906634294 0.4426664044160304 0.7125330992255597 H
atom_frac 0.1383581571205141 0.4426717388793548 0.7874647445846107 H
atom_frac 0.3616713174379385 0.5574070845732920 0.2874543289608908 H
atom_frac 0.6920483989988853 0.4548694114577713 0.1551821943506582 H
atom_frac 0.8080152450269509 0.5451847779829891 0.6551573172606311 H
atom_frac 0.3079997771835535 0.5451883568429921 0.8448432287649581 H
atom_frac 0.1920464570591420 0.4548682916331331 0.3448133931919486 H
atom_frac 0.4337427580435076 0.6200055313987818 0.1119447014354193 H
atom_frac 0.0663034281962426 0.3800239374356949 0.6119611439533656 H
atom_frac 0.5662902316777547 0.3800296314212517 0.8880401937710758 H
atom_frac 0.9337384147489444 0.6200048007784957 0.3880607329800441 H
atom_frac 0.6126646117074088 0.7251473189594579 0.1637678287267761 H
atom_frac 0.8873581441828122 0.2749029496974842 0.6637955373415351 H
atom_frac 0.3873485165874159 0.2749088360387902 0.8362044014814813 H
atom_frac 0.1126573471203401 0.7251456426009143 0.3362349517408987 H
atom_frac 0.7719488289823460 0.8868100462835571 0.2304327377733628 H
atom_frac 0.7280769040836077 0.1132558629203757 0.7303732196694382 H
atom_frac 0.2280905458603043 0.1132599571217625 0.7696306802430115 H
atom_frac 0.2719511253032181 0.8868136014974655 0.2695665882172875 H
atom_frac 0.8959609386830039 0.8501979325213966 0.1842092575396990 H
atom_frac 0.6040234395053689 0.1498948851301733 0.6841763508506489 H
atom_frac 0.1040353131945722 0.1498960546354624 0.8158262974924140 H
atom_frac 0.3959529776585526 0.8502003376996542 0.3157943595112799 H
atom_frac 0.9382686181002029 0.7926573959974378 0.3524467484399452 H
atom_frac 0.5616735924939250 0.2073826061602945 0.8524162471781691 H
atom_frac 0.0616807244140105 0.2073763336134178 0.6475842471954607 H
atom_frac 0.4382814611388783 0.7926557508681144 0.1475620621785083 H
atom_frac 0.1183187751876177 0.8562067422595518 0.4326558491835328 H
atom_frac 0.3816020093716546 0.1437782691212419 0.9326076933798503 H
atom_frac 0.8816013373929225 0.1437736371279783 0.5673969302064136 H
atom_frac 0.6183284613410649 0.8562055583293856 0.0673533916238611 H
atom_frac 0.1981815916052128 0.0587078258366134 0.3060501769735851 H
atom_frac 0.3019414092644369 0.9412863852619751 0.8059711836700528 H
atom_frac 0.8019471977702254 0.9412834015575060 0.6940360381040875 H
atom_frac 0.6981755148550590 0.0587141832924019 0.1939529197594680 H
atom_frac 0.0138198103421916 0.9962963999303444 0.2260773443920812 H
atom_frac 0.4863105654928220 0.0037396657817652 0.7260143037471067 H
atom_frac 0.9863235412762493 0.0037383538379103 0.7739901265173685 H
atom_frac 0.5138123798827365 0.9963003932937017 0.2739255042315207 H
atom_frac 0.2338274910074817 0.9728272327169947 0.6619171948070600 H
atom_frac 0.2661348380138763 0.0271200068114297 0.1618671479119342 H
atom_frac 0.7661462330180272 0.0271244754869713 0.3381259592627329 H
atom_frac 0.7338051883193016 0.9728225291732926 0.8380762061607641 H
atom_frac 0.0968227850218215 0.8892103982867640 0.7497218537313087 H
atom_frac 0.4031469342357781 0.1107559399906037 0.2496577578813586 H
atom_frac 0.9031555851427056 0.1107627923272574 0.2503380180934371 H
atom_frac 0.5967990884890567 0.8892005194819816 0.7502744510142206 H
atom_frac 0.1928406513531868 0.6906192158823075 0.6435804543963215 H
atom_frac 0.3070889837669811 0.3093304793890042 0.1434997880163706 H
atom_frac 0.8071010625417543 0.3093308677347650 0.3565012011614144 H
atom_frac 0.6928652948407078 0.6906207198502232 0.8564116503355095 H
atom_frac 0.3197464474020038 0.7824375287373045 0.5594891527001806 H
atom_frac 0.1801853221331626 0.2174912871898087 0.0594210402525093 H
atom_frac 0.6801955009827836 0.2174933786652674 0.4405773049019359 H
atom_frac 0.8197673737245738 0.7824413236338829 0.9405015432824654 H
atom_frac 0.1274393544447535 0.8136448038649462 0.8430951787611107 H
atom_frac 0.3725599607026311 0.1863289263113543 0.3430350085672984 H
atom_frac 0.8725716747918711 0.1863346574892333 0.1569662128834111 H
atom_frac 0.6274242247241517 0.8136378510007063 0.6569032795401313 H
atom_frac 0.0267147641602677 0.7214522845988471 0.9321420518368341 H
atom_frac 0.4733428338046012 0.2785240850152135 0.4320702982165159 H
atom_frac 0.9733568069756372 0.2785263712976729 0.0679304850319014 H
atom_frac 0.5267015039574617 0.7214436315024387 0.5678583645608413 H
atom_frac 0.8895160439022759 0.5470721533978706 0.7930672688686116 H
atom_frac 0.6104810005009753 0.4528898152896091 0.2929785378641583 H
atom_frac 0.1104888071448969 0.4528957094234941 0.2070179329230726 H
atom_frac 0.3894947739191821 0.5470647907092857 0.7069283411136736 H
atom_frac 0.9928244659168755 0.6308237551804439 0.6969320710320375 H
atom_frac 0.5071644615613876 0.3691342299731843 0.1968528842493669 H
atom_frac 0.0071696630180754 0.3691453095245550 0.3031445185698090 H
atom_frac 0.4928114688974291 0.6308151458038723 0.8030636201095334 H
atom_frac 0.5477057503727495 0.8783032749406419 0.4364242675355853 C
atom_frac 0.9522260743227803 0.1216495579695405 0.9363595309544478 C
atom_frac 0.4522333413270302 0.1216479805415958 0.5636421900537698 C
atom_frac 0.0476925852881678 0.8783040975613973 0.0635731845192851 C
atom_frac 0.5837630516863542 0.8096869196300744 0.4020024595117775 C
atom_frac 0.9161816979774358 0.1902856410815517 0.9019725494304822 C
atom_frac 0.4161857484519659 0.1902857995148466 0.5980280295556638 C
atom_frac 0.0837488771037372 0.8096871456281391 0.0979930949686789 C
atom_frac 0.5419868046198246 0.7354338344915590 0.4291723736610535 C
atom_frac 0.9579450275819781 0.2645248131461245 0.9291839960202566 C
atom_frac 0.4579511441734213 0.2645255602447065 0.5708180940948679 C
atom_frac 0.0419902733019201 0.7354328481842388 0.0708282554852033 C
atom_frac 0.5856066808478602 0.6729464799617304 0.3979512601775994 C
atom_frac 0.9143684706364468 0.3270317810380662 0.8979850381472758 C
atom_frac 0.4143682878818780 0.3270313718545950 0.6020153974525897 C
atom_frac 0.0856160518855233 0.6729501028489224 0.1020495037352021 C
atom_frac 0.6658525215435490 0.6840096085444430 0.3389198877853019 C
atom_frac 0.8341338709300103 0.3160209402925602 0.8389403756776234 C
atom_frac 0.3341376841732497 0.3160193210619440 0.6610599414012269 C
atom_frac 0.1658582297225594 0.6840161172753484 0.1610830210078333 C
atom_frac 0.7065559575826299 0.7589761580855949 0.3104652377040935 C
atom_frac 0.7934256910181362 0.2410643024997796 0.8104604067758386 C
atom_frac 0.2934306910513770 0.2410626629077086 0.6895394148183909 C
atom_frac 0.2065515331324477 0.7589850127079103 0.1895325939599601 C
atom_frac 0.6647850253819669 0.8215165097248304 0.3437492231958785 C
atom_frac 0.8351739300556316 0.1784996113290306 0.8437151413547993 C
atom_frac 0.3351777140758685 0.1784979948830880 0.6562848120533714 C
atom_frac 0.1647779569128147 0.8215242306604580 0.1562464502445380 C
atom_frac 0.5559147951989589 0.5949634517996856 0.4315777884329963 C
atom_frac 0.9440966223190445 0.4050163991532331 0.9316181201683876 C
atom_frac 0.4440937675757581 0.4050119512269249 0.5683782306496639 C
atom_frac 0.0559219354464703 0.5949671018032989 0.0684199679327904 C
atom_frac 0.8501587371473464 0.7099762239390941 0.2265123233205486 C
atom_frac 0.6498568988359282 0.2900955355803205 0.7265107558940541 C
atom_frac 0.1498531183768890 0.2900962057622253 0.7734877698153753 C
atom_frac 0.3501545671863084 0.7099786387783384 0.2734888306418028 C
atom_frac 0.7469881269116030 0.6477400525685866 0.1917165294171355 C
atom_frac 0.7530507653079255 0.3523293159727033 0.6917257036136348 C
atom_frac 0.2530429917676003 0.3523352110968361 0.8082759647500878 C
atom_frac 0.2469837545735417 0.6477412865125632 0.3082840149198205 C
atom_frac 0.7690094948370358 0.5714927854413432 0.1895427707014008 C
atom_frac 0.7310265542009305 0.4285771759330786 0.6895305537969419 C
atom_frac 0.2310165614325684 0.4285824969819387 0.8104664412239444 C
atom_frac 0.2689972435202678 0.5714946284404051 0.3104548479821574 C
atom_frac 0.6729986142250722 0.5137839323821822 0.1581857732970136 C
atom_frac 0.8270549232833417 0.4862702928303264 0.6581680799185534 C
atom_frac 0.3270437204709112 0.4862773439980760 0.8418315442303879 C
atom_frac 0.1729934087718874 0.5137822452644087 0.3418127625005880 C
atom_frac 0.5510578061169441 0.5308399925326057 0.1311216352197846 C
atom_frac 0.9490084172599326 0.4692019983299929 0.6311294866405035 C
atom_frac 0.4489984182472498 0.4692119352368069 0.8688708589797328 C
atom_frac 0.0510532074572795 0.5308423554944712 0.3688782055329440 C
atom_frac 0.5286908129518437 0.6071385127245323 0.1334088717731916 C
atom_frac 0.9713589910763575 0.3929000512813091 0.6334229169269959 C
atom_frac 0.4713481732075735 0.3929105735789308 0.8665800762218580 C
atom_frac 0.0286853696412735 0.6071385558138260 0.3665918676194124 C
atom_frac 0.6278829366615711 0.6653823640386635 0.1621558741732088 C
atom_frac 0.8721438592914126 0.3346678905520265 0.6621703252117470 C
atom_frac 0.3721364742950186 0.3346743487415723 0.8378310474066524 C
atom_frac 0.1278760972538891 0.6653818473444489 0.3378424329137744 C
atom_frac 0.4455980714709186 0.4695135460991084 0.0983319704648622 C
atom_frac 0.0544439555483294 0.5305130404348263 0.5983112575133803 C
atom_frac 0.5544351001954057 0.5305192917518440 0.9016883866628618 C
atom_frac 0.9455932143094331 0.4695139718970226 0.4016690783109880 C
atom_frac 0.8520789083949936 0.8514349566018212 0.2351948500139116 C
atom_frac 0.6479436345546078 0.1486332860363433 0.7351523902695688 C
atom_frac 0.1479531712813369 0.1486344927752583 0.7648498238391922 C
atom_frac 0.3520779304408706 0.8514379455480708 0.2648076815652445 C
atom_frac 0.9633439388349887 0.8900769436854505 0.2838390488968869 C
atom_frac 0.5366618722994332 0.1099663476414392 0.7837847970198623 C
atom_frac 0.0366739153788345 0.1099640859223996 0.7162177833318352 C
atom_frac 0.4633430785094675 0.8900811216026768 0.2161656494354532 C
atom_frac 0.9942012415893586 0.8511475873092849 0.3419606739474403 C
atom_frac 0.5057873502972967 0.1488777220483755 0.8419189971209915 C
atom_frac 0.0057955847946261 0.1488743448860887 0.6580860262969638 C
atom_frac 0.4942018170581479 0.8511483060542562 0.1580471538970869 C
atom_frac 0.0944405284384119 0.8863982284002393 0.3873106574025655 C
atom_frac 0.4055357948042655 0.1136011293370345 0.8872605448893083 C
atom_frac 0.9055417087991131 0.1135999339444282 0.6127446550227873 C
atom_frac 0.5944456114815680 0.8863947118296595 0.1126980071551600 C
atom_frac 0.1693533469554040 0.9611763915468855 0.3744461082756487 C
atom_frac 0.3306477169824902 0.0388130035014882 0.8743741676175104 C
atom_frac 0.8306557089981154 0.0388088878285373 0.6256304813299493 C
atom_frac 0.6693512394412553 0.9611752187012078 0.1255600677000075 C
atom_frac 0.1396836312214660 0.0006275004344829 0.3162692715831739 C
atom_frac 0.3604131074667762 0.9993668022637864 0.8162141234116119 C
atom_frac 0.8604188591078737 0.9993667297935500 0.6837916135289034 C
atom_frac 0.6396782709274547 0.0006303745357954 0.1837327769474726 C
atom_frac 0.0364361477071498 0.9657063272612517 0.2716505048417162 C
atom_frac 0.4636227760910215 0.0343247480865401 0.7715828367361226 C
atom_frac 0.9636346423360962 0.0343211415113416 0.7284215254024673 C
atom_frac 0.5364385632632108 0.9657103096761901 0.2283539316020934 C
atom_frac 0.2855246497022036 0.9913427039327374 0.4212397098616875 C
atom_frac 0.2144397848921997 0.0086171660201870 0.9211453218367466 C
atom_frac 0.7144475164889316 0.0086159828840451 0.5788581568796474 C
atom_frac 0.7855157913504840 0.9913433255492023 0.0787651033137067 C
atom_frac 0.2226162357394088 0.9098696262020881 0.6602018743426399 C
atom_frac 0.2773294675553545 0.0900765137668742 0.1601431687334909 C
atom_frac 0.7773400682819870 0.0900815654911257 0.3398498918938627 C
atom_frac 0.7225917109025985 0.9098643488614259 0.8397920797431339 C
atom_frac 0.1470166914155656 0.8627524062523407 0.7092618837366160 C
atom_frac 0.3529431749738520 0.1372041130106467 0.2091941332946377 C
atom_frac 0.8529571359844538 0.1372109229865757 0.2908025474792169 C
atom_frac 0.6470019912525302 0.8627471199969252 0.7907330096143780 C
atom_frac 0.1368872625340600 0.7818728789939229 0.7062192843496931 C
atom_frac 0.3630796985050964 0.2180865210360849 0.2061509606347158 C
atom_frac 0.8630948724732761 0.2180910005255754 0.2938471732680057 C
atom_frac 0.6368796684449478 0.7818675646955172 0.7937782086797469 C
atom_frac 0.1976055814137538 0.7526890120361642 0.6500365221907742 C
atom_frac 0.3023395399562361 0.2472670140004212 0.1499680702326813 C
atom_frac 0.8023511896242469 0.2472691507774770 0.3500263892173479 C
atom_frac 0.6976131548672486 0.7526882586030016 0.8499580594826384 C
atom_frac 0.2708045026859908 0.8039825713785265 0.6030358330573691 C
atom_frac 0.2291463285149717 0.1959647437712277 0.1029698483362722 C
atom_frac 0.7291621339564713 0.1959691630873622 0.3970275849608953 C
atom_frac 0.7708054840028636 0.8039823971049815 0.8969578011790772 C
atom_frac 0.0704027336329959 0.7302499509680871 0.7609476380265575 C
atom_frac 0.4295564882454882 0.2697123524251452 0.2608819018611115 C
atom_frac 0.9295614358264642 0.2697203869201276 0.2391162865790051 C
atom_frac 0.5703964142589513 0.7302435004782029 0.7390498004414922 C
atom_frac 0.0769089804218481 0.7550288424778485 0.8287341036234608 C
atom_frac 0.4230908698249892 0.2449466369783836 0.3286734483942766 C
atom_frac 0.9231008544860658 0.2449529475876204 0.1713272880188939 C
atom_frac 0.5769000135433019 0.7550218587233321 0.6712638265199756 C
atom_frac 0.0193362766573416 0.7036785296403708 0.8792668126495471 C
atom_frac 0.4807133131088648 0.2962990614321158 0.3791985988987747 C
atom_frac 0.9807215349084900 0.2963013393956544 0.1208031912131560 C
atom_frac 0.5193206662419814 0.7036652070490278 0.6207305704708261 C
atom_frac 0.9443184876774849 0.6063759602668810 0.8016885820767071 C
atom_frac 0.5556887602453245 0.3935888711268661 0.3016023563028725 C
atom_frac 0.0556975266122492 0.3935947665366015 0.1983971263213888 C
atom_frac 0.4443032140709633 0.6063656748291920 0.6983116150720717 C
atom_frac 0.0023382402600731 0.6535451483691331 0.7484138600633585 C
atom_frac 0.4976471780087552 0.3464112542509029 0.2483339705127960 C
atom_frac 0.9976534225400755 0.3464198579771249 0.2516642493351426 C
atom_frac 0.5023299984396630 0.6535416033348511 0.7515845602407366 C
atom_frac 0.2875339002240906 0.8816405830277603 0.6086777981661911 N
atom_frac 0.2124206001548004 0.1183055532176454 0.1086143991326765 N
atom_frac 0.7124359815447792 0.1183117204833621 0.3913810604647026 N
atom_frac 0.7875275519041836 0.8816398580106793 0.8913162899737301 N
atom_frac 0.9525313535679629 0.6304390394238412 0.8668341495882995 N
atom_frac 0.5474954518863342 0.3695396286783749 0.3667519880388141 N
atom_frac 0.0474981082532864 0.3695409346801243 0.1332475060250857 N
atom_frac 0.4525163042624314 0.6304305328822012 0.6331675559315215 N
atom_frac 0.7892114273551912 0.7723871801903286 0.2535408106956892 N
atom_frac 0.7107722863081206 0.2276742232105278 0.7535373795778213 N
atom_frac 0.2107786730426184 0.2276754519287537 0.7464653616139358 N
atom_frac 0.2892053004844116 0.7723931038591235 0.2464601805387261 N
atom_frac 0.4777777494484213 0.8674924426700700 0.4912068035452961 O
atom_frac 0.0222006384189584 0.1324853495551820 0.9911266685855649 O
atom_frac 0.5221971937996556 0.1324825038530193 0.5088728256311370 O
atom_frac 0.9777790289294545 0.8674971334319892 0.0087847697707986 O
atom_frac 0.5896657102376608 0.9450435905574681 0.4097234679332473 O
atom_frac 0.9102541390118899 0.0549017477746290 0.9096668375768147 O
atom_frac 0.4102704741427133 0.0548995407054633 0.5903348840762419 O
atom_frac 0.0896399356833301 0.9450427017310478 0.0902795560508522 O
atom_frac 0.5221011118700929 0.5942595674150298 0.4947258153729450 O
atom_frac 0.9779304760224079 0.4056905387557137 0.9947656945346921 O
atom_frac 0.4779160715661420 0.4056832636742131 0.5052291905357010 O
atom_frac 0.0221117079472464 0.5942626589342624 0.0052703672057390 O
atom_frac 0.5752641344162300 0.5360420183271517 0.3986468823439751 O
atom_frac 0.9247863084620606 0.4639539764331959 0.8987099192235348 O
atom_frac 0.4247887175812367 0.4639494905525014 0.6012868464166060 O
atom_frac 0.0752688798867639 0.5360497262465531 0.1013524856419750 O
atom_frac 0.3197090903899777 0.4701619932462149 0.1126280879786350 O
atom_frac 0.1803358032082585 0.5298355211010845 0.6125690779081836 O
atom_frac 0.6803284960732229 0.5298435178858086 0.8874282376854338 O
atom_frac 0.8197000699402466 0.4701595371312095 0.3873732630173876 O
atom_frac 0.4869717760029816 0.4210400780036423 0.0586486206851333 O
atom_frac 0.0130730972915458 0.5789923309350656 0.5586308305900188 O
atom_frac 0.5130725589074531 0.5789956238292792 0.9413727496478685 O
atom_frac 0.9869653185465169 0.4210381632063759 0.4413484920358570 O
atom_frac 0.3910817002793365 0.0394073015260972 0.3992954349004521 O
atom_frac 0.1088535487259535 0.9605648913899645 0.8992044577127629 O
atom_frac 0.6088666072320592 0.9605555412174240 0.6007948328366125 O
atom_frac 0.8910748451865445 0.0394131330605418 0.1007039410112682 O
atom_frac 0.2759834112101416 0.9622320990373225 0.4806703486265178 O
atom_frac 0.2239717560558390 0.0377149883835202 0.9805820253274575 O
atom_frac 0.7239777219063300 0.0377155883193510 0.5194224521229813 O
atom_frac 0.7759901297009081 0.9622263044492886 0.0193365054196448 O
atom_frac 0.7382267758686396 0.5209768847824990 0.5216036301498619 O
atom_frac 0.7617902852082210 0.4789863239809125 0.0216412602870690 O
atom_frac 0.2617816319543850 0.4789810866811949 0.4783564417324654 O
atom_frac 0.2382421106653753 0.5209820178351736 0.9784029070193582 O
atom_frac 0.7456010580615455 0.3577109721366228 0.4931987221319645 O
atom_frac 0.7544242099379730 0.6422809954408919 0.9932344504584163 O
atom_frac 0.2544161233092908 0.6422771825117906 0.5067643893350962 O
atom_frac 0.2456083666991589 0.3577076831998838 0.0068005980583123 O
