#=======================================================
# FHI-aims file: ./geometry.in
# Created using the Atomic Simulation Environment (ASE)
# Fri Jan 14 15:06:22 2022
#=======================================================
lattice_vector 3.8282972399999999 0.0303709580000000 0.0001085080000000 
lattice_vector -1.5924175549999999 7.7246139420000004 -0.0005001380000000 
lattice_vector 0.0003170590000000 -0.0006625300000000 11.2373806839999997 
atom_frac 0.5000055765973030 0.4999998246341448 0.4999995970864645 V
atom_frac 0.0000000000000000 0.0000000000000000 0.0000000000000000 V
atom_frac 0.3667227036788746 0.4854919496502960 0.7329522112170533 H
atom_frac 0.1333386195526103 0.0145023052267419 0.2329415420244771 H
atom_frac 0.6332806258867052 0.5145077304545821 0.2670478729198820 H
atom_frac 0.8666647100129694 0.9854973748781292 0.7670585421124584 H
atom_frac 0.5509115563011662 0.3127094395878772 0.6964342349552624 H
atom_frac 0.9490996456039654 0.1872799180437994 0.1964159391736189 H
atom_frac 0.4490886277532340 0.6872889583974812 0.3035667390420755 H
atom_frac 0.0509036839616073 0.8127197620610788 0.8035841449633166 H
atom_frac 0.5497738468035819 0.8815809262558006 0.5274815745719508 C
atom_frac 0.9502177751533978 0.6184463359987830 0.0274909439281643 C
atom_frac 0.4502200462284591 0.1184149074905392 0.4725211791461845 C
atom_frac 0.0497752032604524 0.3815598573902861 0.9725064709373327 C
atom_frac 0.5918567220881741 0.0539419175244475 0.5822284517360146 C
atom_frac 0.9081109455406563 0.4460668589601012 0.0822259727304484 C
atom_frac 0.4081429243174313 0.9460551880880386 0.4177734120960749 C
atom_frac 0.0918783498388790 0.5539367597071133 0.9177705521689317 C
atom_frac 0.6151426897611002 0.7400813137032856 0.5658714938739280 O
atom_frac 0.8848383303992763 0.7599357446613410 0.0658626846876942 O
atom_frac 0.3848595645487761 0.2599157815793375 0.4341294800454349 O
atom_frac 0.1151587883579879 0.2400678436282249 0.9341382895702354 O
atom_frac 0.7013686392483435 0.1169314389403979 0.6814196824933063 O
atom_frac 0.7986127615599726 0.3830619336418195 0.1814074814479126 O
atom_frac 0.2986341527103278 0.8830669487151114 0.3185804015912908 O
atom_frac 0.2013921809938638 0.6169416235051984 0.8185890432976350 O
atom_frac 0.4622507979605643 0.4167346404298016 0.6689706861692030 O
atom_frac 0.0377983733138336 0.0832551595850148 0.1689573033995728 O
atom_frac 0.5377519939981000 0.5832637472257080 0.3310293979154011 O
atom_frac 0.9622049562098595 0.9167445205963461 0.8310436706244531 O
atom_frac 0.0000045162076461 0.5000044218161221 0.4999999758592751 F
atom_frac 0.4999949950754328 0.9999949164257061 0.0000005234316376 F
