#=======================================================
# FHI-aims file: ./geometry.in
# Created using the Atomic Simulation Environment (ASE)
# Tue Nov 30 12:20:15 2021
#=======================================================
lattice_vector 4.7897493060000000 -0.0052940330000000 0.0042747930000000 
lattice_vector -2.1360493690000002 9.2264056530000005 0.0066064530000000 
lattice_vector 0.0131064770000000 0.0136251390000000 14.9285055890000002 
atom_frac 0.0000000401810780 0.4999994147859468 0.5000002667845322 Mn
atom_frac 0.9999977691990768 0.9999993524620269 0.9999996798617375 Mn
atom_frac 0.5000006576459910 0.0000004833722329 0.4999993169440415 Cu
atom_frac 0.5000002070235751 0.5000004533229260 0.0000006278672799 Cu
atom_frac 0.9716366830469312 0.6933577122938389 0.6828818704185623 H
atom_frac 0.0269713431246926 0.8062468441694788 0.1836565793450262 H
atom_frac 0.0283595639411871 0.3066415536554744 0.3171176731320530 H
atom_frac 0.9730311620243414 0.1937524224057086 0.8163449719915263 H
atom_frac 0.8090896768894564 0.7662056193926217 0.8351833566574174 H
atom_frac 0.1921474572333181 0.7338344843309627 0.3356002740191216 H
atom_frac 0.1909065700986615 0.2337936465566911 0.1648161868931979 H
atom_frac 0.8078550479157089 0.2661647822442249 0.6644012773174310 H
atom_frac 0.3285763204447250 0.0326466880741165 0.6963530048911863 H
atom_frac 0.6696353396662859 0.4666956900492993 0.1960580867888382 H
atom_frac 0.6714276465194758 0.9673558358257566 0.3036451952882047 H
atom_frac 0.3303650817038247 0.5333035773077910 0.8039421254252304 H
atom_frac 0.7443165361385341 0.8308408669553131 0.6132461976963838 C
atom_frac 0.2540763134953535 0.6690480221811653 0.1135132938751084 C
atom_frac 0.2556832518942471 0.1691616535557330 0.3867526735405633 C
atom_frac 0.7459276466447023 0.3309544987471327 0.8864869158857970 C
atom_frac 0.8304965778622491 0.7683488559796530 0.6897873117336957 C
atom_frac 0.1682377049230936 0.7312467617823586 0.1901925048255109 C
atom_frac 0.1695001594305481 0.2316514970652576 0.3102102216171972 C
atom_frac 0.8317678555153520 0.2687546742400144 0.8098090446760865 C
atom_frac 0.7387117724604622 0.8071463484221298 0.7729192796212132 C
atom_frac 0.2610727792178267 0.6925187874306289 0.2732355794605256 C
atom_frac 0.2612812625572900 0.1928550823864015 0.2270809337505355 C
atom_frac 0.7389327857700536 0.3074826505727941 0.7267646303200621 C
atom_frac 0.5549601187098645 0.9029399693722129 0.7770591879234985 C
atom_frac 0.4444161235567279 0.5964908837678917 0.2771268362672429 C
atom_frac 0.4450361351024057 0.0970592995486754 0.2229383460456020 C
atom_frac 0.5555905605237328 0.4035083861961155 0.7228740440117533 C
atom_frac 0.4709415897642800 0.9577907037251095 0.6970657016458758 C
atom_frac 0.5274167018214088 0.5416147960333576 0.1970141775107095 C
atom_frac 0.5290561076654328 0.0422118145962642 0.3029338400501018 C
atom_frac 0.4725858078770528 0.4583844725228801 0.8029860341048335 C
atom_frac 0.8468860293597658 0.8069457824193974 0.5206782850302361 C
atom_frac 0.1524396975201086 0.6934825316203543 0.0209811283674242 C
atom_frac 0.1531102153536352 0.1930534825393906 0.4793219283808838 C
atom_frac 0.8475616885363452 0.3065189029942487 0.9790197524707196 C
atom_frac 0.4647799883888268 0.9505481597229772 0.8666073997085350 C
atom_frac 0.5354032238791291 0.5493285976643563 0.3666724787588791 C
atom_frac 0.5352162563245743 0.0494511052358177 0.1333928137025850 C
atom_frac 0.4646013718729733 0.4506706711005108 0.6333284021186428 C
atom_frac 0.5690500332478265 0.9241232788780279 0.6177056502352016 N
atom_frac 0.4294819172417519 0.5756813409408607 0.1177318675005026 N
atom_frac 0.4309503903970011 0.0758759894695871 0.3822938921183621 N
atom_frac 0.5705231619908773 0.4243190119480219 0.8822690127588048 N
atom_frac 0.7587359236167757 0.8760892581296388 0.4566477654334236 O
atom_frac 0.2376431739936606 0.6230645442667466 0.9571907779252058 O
atom_frac 0.2412640165475182 0.1239089260939609 0.5433517775383548 O
atom_frac 0.7623551544986642 0.3769347199101388 0.0428107746083981 O
atom_frac 0.0222938028327277 0.7269375222624461 0.5106413481634746 O
atom_frac 0.9800781408279065 0.7751820938275955 0.0105770241912992 O
atom_frac 0.9777029276359176 0.2730628278108895 0.4893581947689256 O
atom_frac 0.0199206711449449 0.2248182544733126 0.9894245277240897 O
atom_frac 0.2369932123047890 0.9977993973411401 0.8713782441718863 O
atom_frac 0.7625961138335456 0.5014918691533412 0.3713571290814457 O
atom_frac 0.7630009463549712 0.0021998674090256 0.1286212999772545 O
atom_frac 0.2374063935901987 0.4985073984123717 0.6286437523946020 O
atom_frac 0.6264482254492378 0.9371877127964365 0.9315447212064714 O
atom_frac 0.3749403294434047 0.5637233420027385 0.4319014356461253 O
atom_frac 0.3735505956224827 0.0628126394665713 0.0684541512669057 O
atom_frac 0.6250596061714616 0.4362748402398038 0.5680994470466558 O
