#=======================================================
# FHI-aims file: ./geometry.in
# Created using the Atomic Simulation Environment (ASE)
# Fri Jan 14 15:06:22 2022
#=======================================================
lattice_vector -3.9267491840000002 10.9026525089999993 -4.8513573059999997 
lattice_vector 11.4078529639999999 0.1923890610000000 -5.2826424440000004 
lattice_vector -7.4293361840000003 -10.9909708239999997 -3.5924509350000000 
atom_frac 0.9999994801593888 0.4999993599178794 0.5000005310462325 Mn
atom_frac 0.4999996270473944 0.4999979194219152 0.9999977704014071 Mn
atom_frac 0.8121137095774172 0.5611414511111477 0.2497978653705245 Mn
atom_frac 0.1878857030480176 0.4388555583296138 0.7502015675010795 Mn
atom_frac 0.2584238665497054 0.8758574949767706 0.7307271711170955 H
atom_frac 0.6445066586081510 0.5264058596062995 0.7668591794613207 H
atom_frac 0.7415730574461394 0.1241447640578741 0.2692762538769100 H
atom_frac 0.3554934802720453 0.4735918772856492 0.2331409865627165 H
atom_frac 0.3703143284743433 0.1020449745391971 0.8394118160285657 H
atom_frac 0.7633174553797916 0.5323415127489781 0.6600492140319288 H
atom_frac 0.6296841315466325 0.8979573122998019 0.1605894937835403 H
atom_frac 0.2366827715453894 0.4676548262737511 0.3399501050231634 H
atom_frac 0.1480886897496703 0.1144464154443412 0.5088975171367380 H
atom_frac 0.1056310956265706 0.6391589441771329 0.9908966635667867 H
atom_frac 0.8519150037202721 0.8855462281808069 0.4910969873826827 H
atom_frac 0.8943701265793608 0.3608508302180268 0.0091066074612127 H
atom_frac 0.0425553036430486 0.8871807969349204 0.3973415668576338 H
atom_frac 0.9886997404333827 0.6426803131182267 0.1007985905329177 H
atom_frac 0.9574509128259479 0.1128134871484932 0.6026554691022383 H
atom_frac 0.0113014439873210 0.3573276500351597 0.8992046113089814 H
atom_frac 0.2340302213369867 0.3059828772911644 0.5156166847346099 H
atom_frac 0.2910777360004033 0.7188059453774969 0.9854061104357967 H
atom_frac 0.7659725962125634 0.6940237742549512 0.4843890239920796 H
atom_frac 0.7089221421606311 0.2811909063117213 0.0145901421183083 H
atom_frac 0.3957520462330990 0.3022598799568215 0.4570068117476821 H
atom_frac 0.3457385093752380 0.9390234150506983 0.0435479874745327 H
atom_frac 0.6042485925521602 0.6977445892357395 0.5429966975217082 H
atom_frac 0.6542609455648006 0.0609754348606373 0.9564542491009859 H
atom_frac 0.4720489609863066 0.6934252398231776 0.5885297416591087 H
atom_frac 0.6047650527037119 0.8834348602225217 0.9114023304069646 H
atom_frac 0.5279435461624615 0.3065758051577419 0.4114647315397306 H
atom_frac 0.3952376137049143 0.1165645463564928 0.0886031015753445 H
atom_frac 0.3041866002037565 0.6772420107337210 0.6387128914127729 H
atom_frac 0.5385456555804424 0.6653868712711103 0.8613706150250026 H
atom_frac 0.6958107012827170 0.3227614884186067 0.3612882002326784 H
atom_frac 0.4614559358092833 0.3346123205232062 0.1386310173038865 H
atom_frac 0.0707075428884920 0.7347491638196857 0.4918662380370833 C
atom_frac 0.7414929904232181 0.5753461490399941 0.0052289027718900 C
atom_frac 0.9292921259267360 0.2652487015949986 0.5081343737866317 C
atom_frac 0.2585062037976582 0.4246518156686179 0.9947694203336964 C
atom_frac 0.1444959370516229 0.8680733708637263 0.5569978220638916 C
atom_frac 0.8100789667904139 0.5854755968462301 0.9408421463098690 C
atom_frac 0.8555059940434901 0.1319252498064927 0.4430014077303567 C
atom_frac 0.1899204333605127 0.4145264329473051 0.0591582719028736 C
atom_frac 0.2377272329232127 0.9282047043350586 0.6817954450036012 C
atom_frac 0.7459384706767693 0.5548714122090033 0.8163782137662777 C
atom_frac 0.7622712773575061 0.0717943733929474 0.3182049486534594 C
atom_frac 0.2540626461186051 0.4451278788792549 0.1836211298444894 C
atom_frac 0.2992157522898538 0.0536006792539538 0.7424692220060010 C
atom_frac 0.8113716240482490 0.5572421006827993 0.7566938617469956 C
atom_frac 0.7007846760359939 0.9463996956248905 0.2575294576384266 C
atom_frac 0.1886289724224071 0.4427605280391802 0.2433068438184947 C
atom_frac 0.2669868390007579 0.1215838279023486 0.6808576101615954 C
atom_frac 0.9411611053881757 0.5871067861921661 0.8188799292126916 C
atom_frac 0.7330131649904813 0.8784134371594374 0.3191378646096579 C
atom_frac 0.0588415017019557 0.4128957710402402 0.1811209498890279 C
atom_frac 0.1750680122978921 0.0610112660970615 0.5557965444127079 C
atom_frac 0.0051398966491901 0.6190503219487267 0.9435906239150001 C
atom_frac 0.8249326423776467 0.9389831039323511 0.4441995251387850 C
atom_frac 0.9948618458814593 0.3809561148127044 0.0564112851582690 C
atom_frac 0.1155418582646277 0.9351864420606760 0.4939829664997220 C
atom_frac 0.9404176874546480 0.6198603865222836 0.0044501635144627 C
atom_frac 0.8844616213301252 0.0648071860611309 0.5060131627714950 C
atom_frac 0.0595845251409770 0.3801459217164122 0.9955512997591285 C
atom_frac 0.3238637772749440 0.2583014706992442 0.7503030199367228 C
atom_frac 0.0090014848099995 0.5764687982197857 0.7502655119170499 C
atom_frac 0.6761374230360317 0.7416963932909937 0.2496927421872782 C
atom_frac 0.9910012904249541 0.4235360128557558 0.2497373931057254 C
atom_frac 0.2905870621888411 0.3868990973398637 0.5279456209659301 C
atom_frac 0.3594985334319318 0.7630017329071277 0.9728313308857962 C
atom_frac 0.7094128503416571 0.6131046444015098 0.4720571551510346 C
atom_frac 0.6405010428089427 0.2369975011479681 0.0271673933890567 C
atom_frac 0.3818237639448796 0.3891697381283307 0.4978890314682901 C
atom_frac 0.3917514016323976 0.8842349242392233 0.0026937137004167 C
atom_frac 0.6181751661410715 0.6108324201879328 0.5021118325441307 C
atom_frac 0.6082467768880734 0.1157596750313062 0.9973053626323461 C
atom_frac 0.4529755600618159 0.4986838365190991 0.5175617816258721 C
atom_frac 0.4812110449278891 0.9353960891172476 0.9825771494186881 C
atom_frac 0.5470199401509889 0.5013187203973501 0.4824347772137401 C
atom_frac 0.5187906768214177 0.0646035452784304 0.0174264396451703 C
atom_frac 0.4244166172569238 0.6047804921544397 0.5712407164510368 C
atom_frac 0.5336348737962452 0.8532240696276360 0.9289476550122442 C
atom_frac 0.5755792271906442 0.3952215228667129 0.4287561743717417 C
atom_frac 0.4663634728690341 0.1467727834860284 0.0710534472415745 C
atom_frac 0.3332653882716413 0.6001226416498465 0.6014576745740710 C
atom_frac 0.4989103340877961 0.7319105426498922 0.8988921675755250 C
atom_frac 0.6667299906403272 0.3998795311228420 0.3985423965662064 C
atom_frac 0.5010924914069009 0.2680910593146564 0.1011098212922120 C
atom_frac 0.2679784039370147 0.4919877179591126 0.5807611152224226 N
atom_frac 0.4116362884850417 0.6875398595710179 0.9198589208655932 N
atom_frac 0.7320203500589811 0.5080172360955899 0.4192414427278877 N
atom_frac 0.5883655167798665 0.3124583477266469 0.0801410867115067 N
atom_frac 0.0921085428110118 0.6802806926751187 0.5561297629606941 O
atom_frac 0.6225283032248824 0.5320918337025304 0.9406174013996348 O
atom_frac 0.9078902659741034 0.3197210814973915 0.4438746133523921 O
atom_frac 0.3774700343816448 0.4679049609535397 0.0593782318185562 O
atom_frac 0.9913518890857420 0.6858063986910282 0.3776997388483424 O
atom_frac 0.8067549388223512 0.6092612515000937 0.1190508080616724 O
atom_frac 0.0086488456896348 0.3141916230507462 0.6222992035931583 O
atom_frac 0.1932449060828248 0.3907338181761518 0.8809481098241535 O
atom_frac 0.4167138145188646 0.3091178123327153 0.8588519569572240 O
atom_frac 0.9519412722362900 0.5626712182605899 0.6425534923702327 O
atom_frac 0.5832861894723749 0.6908794527290637 0.1411435178140366 O
atom_frac 0.0480607011734335 0.4373292428802174 0.3574485411279227 O
atom_frac 0.2718167083486166 0.3160295270230337 0.6950099189179113 O
atom_frac 0.1220939111791636 0.5792774830363500 0.8053869198471234 O
atom_frac 0.7281828301070234 0.6839678957902819 0.3049887361708414 O
atom_frac 0.8779070087449200 0.4207178014245869 0.1946157976921157 O
atom_frac 0.1811446321362169 0.4894949131997350 0.6117567367283386 O
atom_frac 0.3778536117310766 0.5696540554608518 0.8888133717421880 O
atom_frac 0.8188546844991009 0.5105085436918201 0.3882472629711629 O
atom_frac 0.6221444742150412 0.4303419124500892 0.1111838170417060 O
