#=======================================================
# FHI-aims file: ./geometry.in
# Created using the Atomic Simulation Environment (ASE)
# Fri Jan 14 15:06:22 2022
#=======================================================
lattice_vector 6.6918990919999999 -0.0000126790000000 -0.0000310900000000 
lattice_vector -0.0000140390000000 7.4385369949999998 -0.0000589620000000 
lattice_vector -0.0000732960000000 -0.0001274230000000 15.7330126729999993 
atom_frac 0.2500166941067975 0.9301713369587074 0.3196573168985068 Cu
atom_frac 0.2499857268268784 0.4301848807868823 0.1803509089830371 Cu
atom_frac 0.7500020657948953 0.5705576313845313 0.8204135614111863 Cu
atom_frac 0.7499949913382198 0.0705966917357941 0.6795791563948229 Cu
atom_frac 0.5634189157234032 0.0044650699535183 0.4429690565192104 H
atom_frac 0.5633768849630273 0.5045487325172217 0.0570505651552722 H
atom_frac 0.9366283687367345 0.0044630173362776 0.4429659803735150 H
atom_frac 0.0632251114009890 0.4949240640490941 0.9429892072000996 H
atom_frac 0.4367975000895258 0.9949075361502862 0.5570117067795765 H
atom_frac 0.4367887239727893 0.4949206676960358 0.9429867673554000 H
atom_frac 0.0631800911099774 0.9949015219590149 0.5570141464827003 H
atom_frac 0.9365967984270827 0.5045534017132312 0.0570500314801450 H
atom_frac 0.5630248778808992 0.8203376209785278 0.1930848170232267 H
atom_frac 0.5629772562378293 0.3202385421724046 0.3068926775323817 H
atom_frac 0.9370009294621797 0.8203342253829290 0.1930855560244211 H
atom_frac 0.0627131943361192 0.6801981553365054 0.6933384140926151 H
atom_frac 0.4372916588025150 0.1801978442657628 0.8066563273035855 H
atom_frac 0.4372825005170853 0.6801987937705927 0.6933372474627363 H
atom_frac 0.0627014318250545 0.1802039275587788 0.8066581295234841 H
atom_frac 0.9369966438137497 0.3202391797126864 0.3068940522405015 H
atom_frac 0.2499867227249268 0.3640200670869759 0.4203822480095454 C
atom_frac 0.2500004771796823 0.8640587953388204 0.0796184904432948 C
atom_frac 0.7500097173910948 0.1361365473991327 0.9200444724440119 C
atom_frac 0.7500025584832243 0.6361846976963508 0.5799595422662166 C
atom_frac 0.2500012859732692 0.4792228483261384 0.5000381167923820 C
atom_frac 0.2499968578104088 0.9792749798357719 0.9999692056698636 C
atom_frac 0.7500103398665275 0.0193286444420480 0.9992494625302585 C
atom_frac 0.7500014458560144 0.5193888688961434 0.5007479562558075 C
atom_frac 0.2499965307272376 0.6425483581303979 0.4439019915310780 C
atom_frac 0.2499912343438240 0.1426194853551265 0.0560996294671696 C
atom_frac 0.7500025083887182 0.8575771797222770 0.9422800445260721 C
atom_frac 0.7500002360001476 0.3576201309053531 0.5577065617295034 C
atom_frac 0.2499835112118234 0.5298851236629361 0.3682688837476961 C
atom_frac 0.2499992981442887 0.0299427100212952 0.1317382488045169 C
atom_frac 0.7500049141834852 0.9713442340183035 0.8672713150144347 C
atom_frac 0.7500012963678417 0.4713642126343203 0.6327313984308134 C
atom_frac 0.6462921561503521 0.9601871435273349 0.3876451913271452 C
atom_frac 0.6462761375251205 0.4602588539962297 0.1123705463952049 C
atom_frac 0.8537444773691334 0.9601848084364730 0.3876456012648433 C
atom_frac 0.1463116269013512 0.5394615876227744 0.8877661670312094 C
atom_frac 0.3536866582796847 0.0394139999387448 0.6122306973397827 C
atom_frac 0.3536981969681463 0.5394605967484336 0.8877653056316606 C
atom_frac 0.1463000881822296 0.0394136464191561 0.6122290163095910 C
atom_frac 0.8536940888378057 0.4602605518979103 0.1123709562800954 C
atom_frac 0.6462022643355781 0.8585962532449469 0.2495650894452623 C
atom_frac 0.6461728322491355 0.3585369146958683 0.2504352670057060 C
atom_frac 0.8538234464432365 0.8585992958325194 0.2495648641306261 C
atom_frac 0.1461937704287735 0.6417293328529539 0.7497046260600371 C
atom_frac 0.3537989665783813 0.1417214287262779 0.7502942761907718 C
atom_frac 0.3538044921080896 0.6417296867001738 0.7497031295023008 C
atom_frac 0.1461942222546213 0.1417210748565765 0.7502938659417923 C
atom_frac 0.8538029803949385 0.3585372685653141 0.2504331348801898 C
atom_frac 0.5420040084831471 0.9097981883488229 0.3187018658562694 N
atom_frac 0.5419745563375074 0.4097929438512438 0.1812971915477775 N
atom_frac 0.9580294089874786 0.9097988974354151 0.3187001455418539 N
atom_frac 0.0424017604678752 0.5901234180187060 0.8188391111663196 N
atom_frac 0.4575922543550774 0.0900946783224157 0.6811638534491918 N
atom_frac 0.4576007886661557 0.5901214369850794 0.8188367536026533 N
atom_frac 0.0423917317722342 0.0900939705983035 0.6811630329689535 N
atom_frac 0.9579984625116540 0.4097936529570632 0.1812967424427612 N
atom_frac 0.2499907136526858 0.1990317502999233 0.4070548750343194 O
atom_frac 0.2500032657455122 0.6991031995037674 0.0929427200954223 O
atom_frac 0.7500069374142770 0.3014430309638173 0.9074372078718583 O
atom_frac 0.7500045377484100 0.8014754811007804 0.5925731306527098 O
atom_frac 0.2500229914268247 0.4505706856264666 0.5771630982886721 O
atom_frac 0.2500009283837556 0.9505848751437680 0.9228387545781942 O
atom_frac 0.7500062677210340 0.0465426548064798 0.0765191058422587 O
atom_frac 0.7499946794152664 0.5466536596604215 0.4234844074435742 O
atom_frac 0.2500149013196520 0.8101244570432018 0.4518362558571596 O
atom_frac 0.2499840272932090 0.3101724585359519 0.0481710703565739 O
atom_frac 0.7500007390124067 0.6893291634563780 0.9493956607168315 O
atom_frac 0.7500012994430491 0.1893611161023472 0.5505934980600743 O
atom_frac 0.2499782873970204 0.5793142218541547 0.2911681331835254 O
atom_frac 0.2500077180022445 0.0793704166152267 0.2088355562197606 O
atom_frac 0.7499994817871994 0.9229180632545703 0.7898701916070577 O
atom_frac 0.7499960648539742 0.4229097731945187 0.7101092769191412 O
