#=======================================================
# FHI-aims file: ./geometry.in
# Created using the Atomic Simulation Environment (ASE)
# Wed Feb  9 14:46:19 2022
#=======================================================
lattice_vector 3.8237120099999999 0.4718518400000000 -1.6918347600000001 
lattice_vector -1.4172030799999999 5.8234896100000002 -2.9841056600000000 
lattice_vector -0.2974116800000000 0.5223581899999999 6.8057608299999997 
atom_frac 1.0000029900000000 -0.0000001500000000 1.0000003700000002 Cu
    initial_moment         1.000000
atom_frac 0.7374196699999999 0.4059630300000000 0.2127175100000000 H
atom_frac 0.2603172300000000 0.2212914400000000 0.7837321800000001 H
atom_frac 0.2625820600000000 0.5940358700000001 0.7872810600000001 H
atom_frac 0.7396788000000000 0.7787074000000000 0.2162631299999999 H
atom_frac 0.8414709699999999 0.4429780200000000 0.1073710000000000 C
atom_frac 0.1411738900000000 0.3445617700000000 0.8805688300000001 C
atom_frac 0.1585327100000000 0.5570218500000000 0.8926290700000001 C
atom_frac 0.8588264399999999 0.6554374100000000 0.1194293400000001 C
atom_frac 0.9904439700000000 0.2902245600000000 0.9918668900000001 N
atom_frac 0.0095591200000000 0.7097752400000001 0.0081327600000000 N
atom_frac 0.4274509899999999 0.7945666300000001 0.5628138100000000 N
atom_frac 0.5725430300000000 0.2054438800000000 0.4371857800000001 N
atom_frac 0.6843854200000000 0.7445616100000000 0.5170491799999999 O
atom_frac 0.3156103600000000 0.2554350600000000 0.4829546600000000 O
atom_frac 0.4882352500000000 0.9284348500000000 0.7655495000000000 O
atom_frac 0.5117636000000000 0.0715654100000000 0.2344551700000000 O
