#=======================================================
# FHI-aims file: ./geometry.in
# Created using the Atomic Simulation Environment (ASE)
# Wed Feb  9 14:46:29 2022
#=======================================================
lattice_vector 8.1195888699999994 -0.0007779400000000 -1.2616990600000000 
lattice_vector -0.0004785400000000 8.6169882999999992 0.0020126400000000 
lattice_vector 1.2576638800000000 0.0007075600000000 10.6143646999999994 
atom_frac 0.3251514200000000 0.9047855500000002 1.0137426400000000 Cu
    initial_moment         1.000000
atom_frac 0.6748341200000000 0.4048441000000001 -0.0138355300000000 Cu
    initial_moment        -1.000000
atom_frac 0.1806633100000000 0.9076292100000001 0.5271588699999999 Cu
    initial_moment        -1.000000
atom_frac 0.8191671400000000 0.4075016200000001 0.4729269700000000 Cu
    initial_moment        -1.000000
atom_frac 0.4276520400000000 0.1194047200000000 0.6001662600000000 H
atom_frac 0.5724264600000000 0.6192718100000000 0.3998192400000000 H
atom_frac 0.0536789900000000 0.0397905900000000 0.9180324000000000 H
atom_frac 0.9464103100000000 0.5395600100000001 0.0820877300000000 H
atom_frac 0.0982719700000000 0.0143505400000000 0.1318222900000000 H
atom_frac 0.9021342100000002 0.5142273700000001 0.8682447100000000 H
atom_frac 0.2581887800000000 0.9868477600000002 0.3148842500000000 H
atom_frac 0.7415654300000000 0.4871930500000000 0.6851245400000000 H
atom_frac 0.1295187600000000 0.8901184300000001 0.7535379799999999 H
atom_frac 0.8702902000000000 0.3899735800000000 0.2465561400000000 H
atom_frac 0.4733057000000000 0.7029991000000000 0.9171532900000000 H
atom_frac 0.5267455300000000 0.2028537800000000 0.0828820700000000 H
atom_frac 0.2966662600000000 0.3133736200000000 0.6769337300000000 H
atom_frac 0.7033095300000000 0.8132961100000002 0.3228325000000000 H
atom_frac 0.1230910200000000 0.2715263800000000 0.8560403400000000 H
atom_frac 0.8770653400000000 0.7713602400000003 0.1438373500000000 H
atom_frac 0.0950327800000000 0.5699850000000001 0.6964822800000000 H
atom_frac 0.9047626400000000 0.0698489100000000 0.3038166700000000 H
atom_frac 0.3238565800000000 0.5303019600000000 0.8374482400000001 H
atom_frac 0.6763451500000000 0.0301162800000000 0.1624581700000000 H
atom_frac 0.2526734600000000 0.1206063000000000 0.1624192600000000 H
atom_frac 0.7482624999999999 0.6210771700000000 0.8376283900000000 H
atom_frac 0.4224542900000000 0.0042119200000000 0.4003235999999999 H
atom_frac 0.5772450200000000 0.5041251900000000 0.5996974800000000 H
atom_frac 0.0784014100000000 0.2006731300000000 0.6121326900000000 C
atom_frac 0.9215103700000000 0.7006593400000000 0.3878098100000000 C
atom_frac 0.2401607600000000 0.1980819900000000 0.6901168900000000 C
atom_frac 0.7597949400000001 0.6979969100000000 0.3097215900000000 C
atom_frac 0.2091515700000000 0.1793376100000000 0.8288693300000001 C
atom_frac 0.7908867800000000 0.6792161100000000 0.1709983300000000 C
atom_frac 0.3685671200000000 0.2091359400000000 0.9038321299999998 C
atom_frac 0.6315523700000000 0.7091098700000000 0.0959685200000000 C
atom_frac 0.3135535500000001 0.6351917700000000 0.6122791899999999 C
atom_frac 0.6861389600000000 0.1350483500000000 0.3878017899999999 C
atom_frac 0.1851750900000000 0.6649557500000000 0.7105404999999999 C
atom_frac 0.8146613600000000 0.1648140900000000 0.2896261000000000 C
atom_frac 0.2659169300000000 0.6470708800000001 0.8398928599999999 C
atom_frac 0.7341402500000000 0.1469852500000000 0.1601972000000000 C
atom_frac 0.1555868400000000 0.6404673300000000 0.9506381100000001 C
atom_frac 0.8445995200000000 0.1406793900000000 0.0495106800000000 C
atom_frac 0.3473028200000000 0.0773777700000000 0.6564513700000000 O
atom_frac 0.6526129899999999 0.5772825400000000 0.3434192000000000 O
atom_frac 0.0382551900000000 0.0847475800000000 0.5445016100000000 O
atom_frac 0.9615845199999999 0.5847505400000000 0.4555039600000000 O
atom_frac -0.0044094800000000 0.3219001500000000 0.6203051200000000 O
atom_frac 1.0042845000000000 0.8219454200000000 0.3796280000000000 O
atom_frac 0.1422322500000000 0.0310081700000000 0.8544967899999999 O
atom_frac 0.8576520900000000 0.5308355500000002 0.1454545300000000 O
atom_frac 0.4207167200000000 0.1073212800000000 0.9842302400000001 O
atom_frac 0.5792196400000000 0.6073147900000001 0.0156607300000000 O
atom_frac 0.4397291900000000 0.3347722900000000 0.8895000000000000 O
atom_frac 0.5605930300000000 0.8348346000000000 0.1101951700000000 O
atom_frac 0.2175092600000000 0.0123983900000000 0.1625625800000000 O
atom_frac 0.7829707899999999 0.5127569499999999 0.8373911400000001 O
atom_frac 0.2992733200000000 0.0177794000000000 0.3997108400000000 O
atom_frac 0.7003790300000000 0.5177393000000000 0.6002261600000000 O
atom_frac 0.1036031100000000 0.8086503100000001 0.6875019000000000 O
atom_frac 0.8962347500000000 0.3085422500000000 0.3126244200000000 O
atom_frac 0.3300372000000000 0.7342732800000000 0.5258302999999999 O
atom_frac 0.6695996100000000 0.2341312000000000 0.4741880600000000 O
atom_frac 0.3935943900000000 0.5123310400000001 0.6227942100000000 O
atom_frac 0.6060652700000000 0.0121702300000000 0.3772844000000000 O
atom_frac 0.3896371599999999 0.7612559300000000 0.8627217000000000 O
atom_frac 0.6103321500000000 0.2610813499999999 0.1373662600000000 O
atom_frac 0.1784219600000000 0.7354353500000000 0.0395211800000000 O
atom_frac 0.8215880500000000 0.2355350800000000 0.9605417900000000 O
atom_frac 0.0506348000000000 0.5331051400000001 0.9558870200000000 O
atom_frac 0.9497709200000000 0.0335252800000000 0.0443479200000000 O
