#=======================================================
# FHI-aims file: ./geometry.in
# Created using the Atomic Simulation Environment (ASE)
# Fri Jan 14 15:06:22 2022
#=======================================================
lattice_vector 6.9989116930000002 -0.0122846490000000 -0.7385606190000000 
lattice_vector -1.9634916739999999 6.7170206209999996 -0.7288271810000000 
lattice_vector -0.3952026140000000 -0.5032741630000001 16.2767931889999993 
atom_frac 0.0934690513918426 0.8520585301980788 0.9423819421279372 Zn
atom_frac 0.1476724958185329 0.9061720179849218 0.5582087197268277 Zn
atom_frac 0.9065325424934940 0.1479546889259069 0.0575993455029504 Zn
atom_frac 0.8522937485968356 0.0938132029750349 0.4418170168592183 Zn
atom_frac 0.1528221327272021 0.5097214906655481 0.8336855502502372 H
atom_frac 0.4887257557799103 0.8462464238172130 0.6671529745521806 H
atom_frac 0.8471779248611712 0.4902965554072694 0.1663204586730060 H
atom_frac 0.5112801287766544 0.1537842653624040 0.3328428062020946 H
atom_frac 0.3930392963173688 0.3050854962162218 0.8355827705264570 H
atom_frac 0.6925320809079523 0.6055508483833307 0.6651444614685358 H
atom_frac 0.6069544604854756 0.6949145150129538 0.1644012563151732 H
atom_frac 0.3074244698804093 0.3944286395626192 0.3348646048984775 H
atom_frac 0.8383216033872712 0.4667558655807653 0.9142338734205847 H
atom_frac 0.5327697676051032 0.1623648367952484 0.5856908400166032 H
atom_frac 0.1616933107123089 0.5332673863491877 0.0857816439237880 H
atom_frac 0.4671947769984258 0.8376219929611607 0.4142968004363609 H
atom_frac 0.7555502518729185 0.6216534317003449 0.9736984058140334 H
atom_frac 0.3748716999533316 0.2452600353771075 0.5273697069985557 H
atom_frac 0.2444410783552939 0.3783587320803364 0.0263087868276983 H
atom_frac 0.6250520882400464 0.7547587652415187 0.4726482342727677 H
atom_frac 0.9039969814796366 0.1138370762465968 0.8590957667902186 C
atom_frac 0.8871707449255268 0.0977248843258280 0.6411842803004147 C
atom_frac 0.0960296727843044 0.8862036544205550 0.1409143078236852 C
atom_frac 0.1127774103065703 0.9022362186919606 0.3588180525496653 C
atom_frac 0.9807722835618408 0.0048047171500372 0.7927189000608122 C
atom_frac 0.9959877150963051 0.0202877165418798 0.7077010446024941 C
atom_frac 0.0192627870097581 0.9952129887662411 0.2073015841520273 C
atom_frac 0.0040072886548259 0.9797135020878330 0.2922990665458016 C
atom_frac 0.1721738131485253 0.8271244712820619 0.7502412454934839 C
atom_frac 0.8278521115548472 0.1728694869187777 0.2497605579660344 C
atom_frac 0.3014699669228307 0.6969655554887949 0.7503634865063870 C
atom_frac 0.6985367091032162 0.3030601788872077 0.2496456244751783 C
atom_frac 0.2756925150732243 0.5423702793669563 0.7985221465576584 C
atom_frac 0.4562996943117029 0.7235684141078451 0.7024769055812852 C
atom_frac 0.7243324753058931 0.4576437857034605 0.2014897304081059 C
atom_frac 0.5437030815215493 0.2764505857497568 0.2975218969306113 C
atom_frac 0.4055268556574418 0.4235674197637563 0.7973771899256261 C
atom_frac 0.5742698757593346 0.5928909279184252 0.7034056405094943 C
atom_frac 0.5944563287772199 0.5764230495573841 0.2026188317396133 C
atom_frac 0.4257229847138504 0.4071327783426001 0.2965966090610194 C
atom_frac 0.4971457869117303 0.8880099957215249 0.0021741458274604 C
atom_frac 0.1119542186874654 0.5029499599746926 0.4983763376712316 C
atom_frac 0.5028400169596239 0.1119837981834522 0.9978264441614612 C
atom_frac 0.8880931330052422 0.4970568459479736 0.5016374576405552 C
atom_frac 0.0865895417348028 0.8790110638362377 0.8164967525819262 N
atom_frac 0.1210935785491074 0.9137701531143065 0.6840116074356997 N
atom_frac 0.9134342535685249 0.1210146679775193 0.1835119063300325 N
atom_frac 0.8789204208822810 0.0862775643148055 0.3159926764663651 N
atom_frac 0.5478021264583431 0.4474520691357498 0.7496415397127192 N
atom_frac 0.4521957562547668 0.5524960052097682 0.2503446493620912 N
atom_frac 0.9072294630752610 0.0399101045298451 0.9284243737282620 O
atom_frac 0.9597841434627059 0.0918578011005806 0.5716370003164497 O
atom_frac 0.0927619557223593 0.9601146722527287 0.0715723290162558 O
atom_frac 0.0401984117196433 0.9081369918723182 0.4283770031742335 O
atom_frac 0.8523111781882663 0.2659003143106701 0.8481411963370603 O
atom_frac 0.7369266388931595 0.1527567719480913 0.6520650695020718 O
atom_frac 0.1477520801174562 0.7341456597189618 0.1518584865375630 O
atom_frac 0.2630284736563837 0.8471984386890837 0.3479379295648356 O
atom_frac 0.3319547253596510 0.7538777052730126 0.9740300233653371 O
atom_frac 0.2457904031577982 0.6681991739968038 0.5267470522648947 O
atom_frac 0.6680365430311141 0.2461251260875770 0.0259718336189891 O
atom_frac 0.7542528842597279 0.3318192836167526 0.4732633941289562 O
atom_frac 0.6555101531249434 0.8538852182453026 0.0329480589165740 O
atom_frac 0.1468271268346442 0.3446923585544965 0.4681383983442159 O
atom_frac 0.3444853781812328 0.1461165112077082 0.9670588571306948 O
atom_frac 0.8531987682477008 0.6553007827405465 0.5318922426593105 O
atom_frac 0.8571335859425631 0.6085507148860428 0.9395636619724638 O
atom_frac 0.3913610992738228 0.1396389775060811 0.5587812336530931 O
atom_frac 0.1428485509340831 0.3914758302764343 0.0604369993885499 O
atom_frac 0.6086715849084784 0.8601350348917618 0.4410666506550526 O
