#=======================================================
# FHI-aims file: ./geometry.in
# Created using the Atomic Simulation Environment (ASE)
# Wed Feb  9 14:46:26 2022
#=======================================================
lattice_vector 7.0379678400000003 0.0215305500000000 0.1536298800000000 
lattice_vector -0.0886443800000000 10.8513152099999992 5.2093476599999997 
lattice_vector -0.0487078500000000 0.2035296800000000 12.5784473899999991 
atom_frac 1.0000013400000001 -0.0000078900000000 1.0000010400000001 Mn
    initial_moment         2.000000
atom_frac 0.0000027000000000 0.4999957400000000 -0.0000040800000000 Mn
    initial_moment        -4.000000
atom_frac 0.0031941700000000 0.2681523600000000 0.9115679400000000 H
atom_frac 0.9968130300000000 0.7318300100000000 0.0884343000000000 H
atom_frac 0.0035190300000000 0.4564448600000001 0.7159087600000001 H
atom_frac 0.9964819699999999 0.5435385200000000 0.2840914000000000 H
atom_frac 0.0186706000000000 0.2123350100000000 0.5481438500000001 H
atom_frac 0.9813320200000000 0.7876467000000000 0.4518581300000000 H
atom_frac 0.0127932900000000 0.0330121300000000 0.7505562700000000 H
atom_frac 0.9871984300000000 0.9669705500000001 0.2494458900000000 H
atom_frac 0.3229329700000000 0.8943276200000001 0.7016173300000002 H
atom_frac 0.6770722800000000 0.1056646800000000 0.2983780100000001 H
atom_frac 0.2902080800000000 0.6944724099999999 0.8841643000000001 H
atom_frac 0.7098000999999999 0.3055230100000000 0.1158327900000000 H
atom_frac 0.7455003599999999 0.8447176800000001 0.6193962100000001 H
atom_frac 0.2544986000000000 0.1552713200000000 0.3806060100000001 H
atom_frac 0.7271031199999999 0.6558918900000000 0.8132592100000000 H
atom_frac 0.2729066500000000 0.3440966600000001 0.1867414900000000 H
atom_frac 0.5238152800000000 0.9050706100000000 0.1964069200000000 H
atom_frac 0.4761902500000000 0.0949191300000000 0.8035784400000001 H
atom_frac 0.5175564499999999 0.6729260899999999 0.2888336700000000 H
atom_frac 0.4824492300000000 0.3270636800000000 0.7111545600000001 H
atom_frac 0.4106149599999999 0.6737230400000002 0.6266946900000001 H
atom_frac 0.5893843000000000 0.3262721900000000 0.3732905600000000 H
atom_frac 0.4245027700000000 0.9076154600000000 0.5205586100000000 H
atom_frac 0.5754958299999999 0.0923795400000000 0.4794240300000001 H
atom_frac 0.6503164100000000 0.1148153000000000 0.0581318100000000 C
atom_frac 0.3496881600000000 0.8851731900000002 0.9418615499999999 C
atom_frac 0.3359567500000000 0.1167151900000000 0.0621238700000000 C
atom_frac 0.6640479400000000 0.8832753800000002 0.9378675799999999 C
atom_frac 0.0047975800000000 0.2598065000000000 0.8287024900000000 C
atom_frac 0.9952073199999999 0.7401768100000000 0.1712992800000000 C
atom_frac 0.0051289900000000 0.3635981200000000 0.7207158500000002 C
atom_frac 0.9948759399999999 0.6363846300000000 0.2792859300000001 C
atom_frac 0.0080770500000000 0.3494831900000000 0.6156111000000000 C
atom_frac 0.9919281699999999 0.6504991200000000 0.3843908300000000 C
atom_frac 0.0129076600000000 0.2280437500000000 0.6273399600000000 C
atom_frac 0.9870943399999998 0.7719388400000000 0.3726614600000001 C
atom_frac 0.0109474600000000 0.1284894900000000 0.7389526400000002 C
atom_frac 0.9890505799999999 0.8714933400000001 0.2610492500000001 C
atom_frac 0.6511194200000000 0.5654935200000000 0.1076293500000000 C
atom_frac 0.3488831400000000 0.4345139800000000 0.8923397700000002 C
atom_frac 0.3320850600000000 0.5677399500000000 0.1103295900000000 C
atom_frac 0.6679140099999999 0.4322500300000000 0.8896618100000001 C
atom_frac 0.1912288600000000 0.8397617200000000 0.7209969800000001 C
atom_frac 0.8087779899999998 0.1602292700000000 0.2789986800000000 C
atom_frac 0.1717889600000000 0.7302652400000000 0.8236023500000000 C
atom_frac 0.8282174400000000 0.2697273800000000 0.1763957900000000 C
atom_frac 0.0396198800000000 0.8816780600000000 0.6416736800000001 C
atom_frac 0.9603883999999999 0.1183079000000000 0.3583212200000000 C
atom_frac 0.8687655700000000 0.8132706100000001 0.6765426500000001 C
atom_frac 0.1312424600000000 0.1867172000000000 0.3234508400000001 C
atom_frac 0.8592354100000000 0.7083164000000001 0.7832855500000000 C
atom_frac 0.1407728600000000 0.2916730800000000 0.2167109600000000 C
atom_frac 0.5014015600000000 0.8514022099999999 0.2926888200000001 C
atom_frac 0.4986021600000000 0.1485889100000000 0.7072965500000000 C
atom_frac 0.4992396599999999 0.7228862100000000 0.3426945200000000 C
atom_frac 0.5007632400000001 0.2771048000000000 0.6572923500000001 C
atom_frac 0.4706667200000000 0.6573502900000000 0.4655414400000000 C
atom_frac 0.5293337900000000 0.3426421600000000 0.5344452600000000 C
atom_frac 0.4398349100000000 0.7236594400000002 0.5310708700000001 C
atom_frac 0.5601646800000000 0.2763344100000000 0.4689143800000001 C
atom_frac 0.4475892299999999 0.8527081400000001 0.4716231700000001 C
atom_frac 0.5524110399999999 0.1472856600000000 0.5283607500000000 C
atom_frac 0.7962202700000000 0.0759720700000000 0.0419650400000000 N
atom_frac 0.2037849800000000 0.9240127900000001 0.9580336699999999 N
atom_frac 0.4946203599999999 0.1625365900000000 0.0771338700000000 N
atom_frac 0.5053849000000000 0.8374568400000000 0.9228536000000002 N
atom_frac 0.1901077300000000 0.0785706600000000 0.0474336200000000 N
atom_frac 0.8098971999999999 0.9214161000000000 0.9525621600000000 N
atom_frac 0.0062301600000000 0.1422886200000000 0.8399539400000000 N
atom_frac 0.9937717199999999 0.8576951100000002 0.1600468799999999 N
atom_frac 0.0065980800000000 0.4461207100000000 0.5018261300000000 N
atom_frac 0.9934089600000000 0.5538619199999999 0.4981760000000002 N
atom_frac 0.7977183700000000 0.5516943900000000 0.0687377000000000 N
atom_frac 0.2022855700000000 0.4483095400000000 0.9312356500000000 N
atom_frac 0.4917351500000000 0.5743153800000000 0.1555813600000000 N
atom_frac 0.5082717800000000 0.4256832400000001 0.8443956200000000 N
atom_frac 0.1852403200000000 0.5545528500000001 0.0736668300000000 N
atom_frac 0.8147543800000000 0.4454384800000000 0.9263281400000000 N
atom_frac 0.0094474800000000 0.6625414500000001 0.8562038199999999 N
atom_frac 0.9905608599999999 0.3374529900000000 0.1437883700000000 N
atom_frac 0.0690278100000000 0.9871667000000001 0.5365883500000002 N
atom_frac 0.9309822799999999 0.0128195100000000 0.4634053100000000 N
atom_frac 0.4787541399999999 0.9170215100000002 0.3544840499999999 N
atom_frac 0.5212479600000000 0.0829708800000000 0.6454999300000001 N
atom_frac 0.4638063000000000 0.5270199900000001 0.5281729300000000 N
atom_frac 0.5361932400000000 0.4729721999999999 0.4718146200000001 N
