#=======================================================
# FHI-aims file: ./geometry.in
# Created using the Atomic Simulation Environment (ASE)
# Tue Nov 30 12:20:15 2021
#=======================================================
lattice_vector 9.5331735099999992 -0.0846649210000000 0.7508948230000000 
lattice_vector 4.0291556950000000 8.8521505820000002 4.6342588969999996 
lattice_vector -0.0155221850000000 0.0510781360000000 11.3151363140000001 
atom_frac 0.5042066867508198 0.3347185004172601 0.0491413983196693 Co
atom_frac 0.4984233757989712 0.6654604035527285 0.9515475883718030 Co
atom_frac 0.1769450307127514 0.7029843905379707 0.8253503066175727 Co
atom_frac 0.8206596238469572 0.2969640247396867 0.1742588607465337 Co
atom_frac 0.3213636244835100 0.0959589736139179 0.9527548490528517 H
atom_frac 0.6793348940686170 0.9030396138648060 0.0486155504272219 H
atom_frac 0.9077604139143816 0.1170755032540569 0.8016243870494720 H
atom_frac 0.0927249604284200 0.8827659592754387 0.1993681069241120 H
atom_frac 0.9081682103630372 0.5058742726931911 0.8247120126946612 H
atom_frac 0.0931013216417398 0.4940518949995791 0.1754301719836349 H
atom_frac 0.8987090404158951 0.3733762208034079 0.5643627954424987 H
atom_frac 0.1022074108580853 0.6262714096791839 0.4358921532363170 H
atom_frac 0.7976486369871340 0.5280670786985198 0.3283902294349306 H
atom_frac 0.2034551749059403 0.4708316289265896 0.6717754595411876 H
atom_frac 0.5333250715634960 0.7340421103735153 0.2596537684111341 H
atom_frac 0.4677405246555962 0.2647320260285396 0.7401103338210506 H
atom_frac 0.3767979796339488 0.7891304422336844 0.4322802164485752 H
atom_frac 0.6236246870576636 0.2097389490646222 0.5671384490793372 H
atom_frac 0.0829589842771767 0.7979177227489844 0.5351777525622056 H
atom_frac 0.9155450959015068 0.2029907054883822 0.4645874604128651 H
atom_frac 0.8325216698964795 0.8936731972121805 0.3989117494999733 H
atom_frac 0.1663323285290019 0.1039437696146592 0.6017567431389212 H
atom_frac 0.5984921017901782 0.9392509008653320 0.7290962571172559 H
atom_frac 0.3996486464406316 0.0620931980175925 0.2701328433163185 H
atom_frac 0.8554329663771439 0.8488428306241289 0.8485158382290197 H
atom_frac 0.1423682819762035 0.1561921321803794 0.1497181800461647 H
atom_frac 0.6925178599037523 0.4324713196879629 0.9307451161831396 H
atom_frac 0.3058018129302056 0.5712861723509307 0.0645963914682994 H
atom_frac 0.2024223451615725 0.3858935235414407 0.9272165463186683 C
atom_frac 0.7986623316775764 0.6140040107713389 0.0730786635848377 C
atom_frac 0.1227554711844617 0.3077347568643206 0.8948775106447260 C
atom_frac 0.8783106313908389 0.6918460419631032 0.1058526725037438 C
atom_frac 0.2006191644588425 0.1586497176445789 0.9129975950647947 C
atom_frac 0.8001715362309838 0.8407773781977355 0.0880709929574622 C
atom_frac 0.1237906106751439 0.0905879440185942 0.8781174181247169 C
atom_frac 0.8767415021177812 0.9089400693920242 0.1230445398884045 C
atom_frac 0.2073903472140657 0.9338486875463869 0.8909777835154746 C
atom_frac 0.7929021275067782 0.0650068494679630 0.1112134482409743 C
atom_frac 0.9682908448831712 0.1707746834950896 0.8267148588811466 C
atom_frac 0.0324074112768001 0.8290338575950218 0.1740710723682995 C
atom_frac 0.8938657962928361 0.3192069024634351 0.8080073557814631 C
atom_frac 0.1070557309119238 0.6808655333662728 0.1922473746543362 C
atom_frac 0.9686871139001030 0.3892365554174120 0.8405400188875591 C
atom_frac 0.0324512295369601 0.6106332667092430 0.1597523742115855 C
atom_frac 0.6943179139209265 0.4943085732761148 0.6300239052827054 C
atom_frac 0.3062703867388734 0.5053695611215049 0.3698823992143049 C
atom_frac 0.7848167261342381 0.4652951148654980 0.5347498244505857 C
atom_frac 0.2159453583165529 0.5341587409192242 0.4653534614831827 C
atom_frac 0.7268352665113582 0.5531727031234722 0.4017253980892124 C
atom_frac 0.2740641189311290 0.4458344017202407 0.5983060602449444 C
atom_frac 0.5791774124011226 0.6681315419240121 0.3636583795999471 C
atom_frac 0.4216962734701680 0.3308561614633803 0.6361688575132407 C
atom_frac 0.4912615945468912 0.6981231398748734 0.4599123417815606 C
atom_frac 0.5092778508377266 0.3008655888719857 0.5397705071170409 C
atom_frac 0.5491826530096732 0.6152857063994618 0.5936939815372143 C
atom_frac 0.4510185964761320 0.3838903878386120 0.4060432767240202 C
atom_frac 0.4637954335933046 0.6598398452001746 0.6951219603990143 C
atom_frac 0.5358341948706383 0.3391528275750985 0.3047186328799756 C
atom_frac 0.9725609011368165 0.8316093058527160 0.5730630237114627 C
atom_frac 0.0258732021976726 0.1693103870541607 0.4265917479829895 C
atom_frac 0.8347114077655532 0.8834618744297913 0.4989068020761282 C
atom_frac 0.1638995011210937 0.1154905329852554 0.5013289743660538 C
atom_frac 0.6961864577836396 0.9243390504372397 0.5535462013766977 C
atom_frac 0.3023779020636680 0.0750526414025146 0.4464438153818477 C
atom_frac 0.7031836532146583 0.9106765561680490 0.6828554149110675 C
atom_frac 0.2950622176599397 0.0905286530479970 0.3165375999972397 C
atom_frac 0.8452859029802725 0.8595665892204493 0.7489149792524898 C
atom_frac 0.1527579041854423 0.1438193959322547 0.2498581092581773 C
atom_frac 0.9791960354880301 0.8192381380147541 0.6966619683264524 N
atom_frac 0.0189061159588775 0.1843176774609532 0.3021419772491570 N
atom_frac 0.5604088662650851 0.9771723084136072 0.4737947710587777 N
atom_frac 0.4382163923236604 0.0216856335687297 0.5261950518422582 N
atom_frac 0.1242597988331654 0.5261452749639942 0.8930091744657677 O
atom_frac 0.8763657464561376 0.4739756169177626 0.1061883608757484 O
atom_frac 0.3400282407111704 0.3071666045403346 0.9824835225952246 O
atom_frac 0.6609322575954409 0.6935570911640098 0.0181284841314594 O
atom_frac 0.1256826950271091 0.8775880085419273 0.8641606435071627 O
atom_frac 0.8739702578561009 0.1201597829689193 0.1406106537723275 O
atom_frac 0.3515157500673212 0.8710087867425003 0.9238809090448684 O
atom_frac 0.6488663102109270 0.1290177669649069 0.0771663626654658 O
atom_frac 0.7373248619442805 0.3991038319538945 0.7638950035045725 O
atom_frac 0.2635990790821695 0.6010813997123491 0.2361975956422811 O
atom_frac 0.5396964963751217 0.6739119424897310 0.7722162629885505 O
atom_frac 0.4595779563770250 0.3265374253719385 0.2265484261012816 O
atom_frac 0.3211788965454118 0.6842898798883326 0.6941429380404077 O
atom_frac 0.6791153405472912 0.3123654242979370 0.3062264089216598 O
atom_frac 0.6482681374738705 0.4311408034661143 0.0119866613683328 O
atom_frac 0.3531544445259769 0.5716192797517223 0.9847628975722672 O
