#=======================================================
# FHI-aims file: ./geometry.in
# Created using the Atomic Simulation Environment (ASE)
# Wed Feb  9 14:46:23 2022
#=======================================================
lattice_vector 12.0832339900000001 0.6824894400000000 -3.7256429899999999 
lattice_vector -4.0009005200000001 12.5815699500000004 -2.7167492000000002 
lattice_vector 0.8701145300000001 -0.3024603900000000 11.6958384500000001 
atom_frac 0.6460460600000001 0.8345110200000000 0.3019762100000000 H
atom_frac 0.3539692199999999 0.1655131700000000 0.6980545600000001 H
atom_frac 0.6677230500000000 1.0274139799999997 0.3759576399999999 H
atom_frac 0.3322966800000001 -0.0274239000000000 0.6240179800000000 H
atom_frac 0.4964701000000000 0.1680870800000000 0.3260373200000000 H
atom_frac 0.5032141100000000 0.8318301599999998 0.6736936600000000 H
atom_frac 0.5316613100000001 0.1826917700000000 0.1922188200000001 H
atom_frac 0.4685089000000000 0.8173209599999999 0.8078043100000000 H
atom_frac 0.6377386700000000 0.1897895400000000 0.3256373800000000 H
atom_frac 0.3621027700000000 0.8101895700000000 0.6746563200000001 H
atom_frac 0.4063402600000000 1.0091236200000000 0.0598670100000000 H
atom_frac 0.5935537200000000 -0.0091182800000000 0.9402644000000001 H
atom_frac 0.3885968500000000 0.8159169100000000 0.9824883700000001 H
atom_frac 0.6113515700000000 0.1840556200000000 0.0175390300000000 H
atom_frac 0.2142484800000000 0.4079666499999999 0.1929286900000000 H
atom_frac 0.7858870599999999 0.5919235599999999 0.8070616900000001 H
atom_frac 0.0160436800000000 0.3507545100000000 0.1882861200000000 H
atom_frac 0.9841427000000000 0.6490413600000000 0.8118117100000001 H
atom_frac 0.8120241700000000 0.2286364900000000 0.0043726700000000 H
atom_frac 0.1881709900000000 0.7712518199999999 0.9961991200000001 H
atom_frac 0.7748815199999999 0.3060507299999999 -0.0937337500000000 H
atom_frac 0.2251694900000000 0.6933768399999999 1.0937830399999999 H
atom_frac 0.8090015100000000 0.3615437499999999 0.0686653900000000 H
atom_frac 0.1910805499999999 0.6383996300000000 0.9313262600000002 H
atom_frac 0.9136832499999998 0.3437645899999999 -0.1895384300000001 H
atom_frac 0.0862920300000000 0.6558718099999999 1.1895907299999999 H
atom_frac 0.1129228800000000 0.4006566999999999 0.8152922200000001 H
atom_frac 0.8870208100000000 0.5990745400000000 0.1846575700000000 H
atom_frac 0.7579036600000000 0.8042616499999999 0.1081134500000000 H
atom_frac 0.2421468800000000 0.1957495999999999 0.8917618899999999 H
atom_frac 0.6858696200000000 0.7686334399999999 -0.1174588800000000 H
atom_frac 0.3141359700000000 0.2314497800000000 1.1173475700000000 H
atom_frac 0.6911002099999999 -0.1848311800000000 0.6998994400000002 H
atom_frac 0.3088511800000000 1.1850179800000000 0.2999978200000000 H
atom_frac 0.8120852800000000 -0.0913429200000000 0.7063863900000001 H
atom_frac 0.1877600800000000 1.0916750799999999 0.2935420500000000 H
atom_frac 0.6902114799999999 -0.0490015700000000 0.7228540500000000 H
atom_frac 0.3095781700000000 1.0491662700000000 0.2772207000000000 H
atom_frac 0.8864358500000000 0.0715336100000000 -0.0884768600000000 H
atom_frac 0.1135074200000000 0.9286088399999999 1.0884643800000000 H
atom_frac -0.0393314000000000 0.1047780700000000 0.1359200800000000 H
atom_frac 1.0393018899999997 0.8953030199999998 0.8640499000000000 H
atom_frac 0.6647027099999999 1.0655284899999997 0.5974937299999999 H
atom_frac 0.3352761300000000 -0.0654496200000000 0.4024747400000000 H
atom_frac 0.5273486299999999 1.1759105999999997 0.6105172200000000 H
atom_frac 0.4726494800000000 -0.1758585600000000 0.3893650800000000 H
atom_frac 0.5394928899999999 1.4056461299999998 0.5139628800000000 H
atom_frac 0.4606539400000000 -0.4054684600000000 0.4860639600000001 H
atom_frac 0.5767442000000000 0.4479190400000000 0.6764658700000001 H
atom_frac 0.4232617599999999 0.5521455799999999 0.3235636000000000 H
atom_frac 0.4692355000000000 0.3322398799999999 0.5948216700000000 H
atom_frac 0.5307882500000001 0.6678467600000000 0.4050375000000000 H
atom_frac 0.7649609099999999 0.4369154599999999 0.5907113200000000 H
atom_frac 0.2351801300000000 0.5632046500000000 0.4094522400000000 H
atom_frac 0.9030658900000001 0.3263943499999999 0.5804694900000000 H
atom_frac 0.0969675600000000 0.6736460299999999 0.4195266500000000 H
atom_frac 0.5293922399999998 0.4934838100000000 0.0981260000000000 Ru
    initial_moment         4.000000
atom_frac 0.4706226800000000 0.5065045900000000 0.9018487300000000 Ru
    initial_moment        -2.000000
atom_frac 0.9332371099999999 0.9278931999999999 0.4963150800000000 Ru
    initial_moment        -2.000000
atom_frac 0.0667536600000000 0.0721397200000000 0.5036134100000002 Ru
atom_frac 0.7039677599999999 0.5269555299999999 0.3471939400000000 C
atom_frac 0.2959992200000000 0.4730795700000000 0.6528246400000000 C
atom_frac 0.8056428200000000 0.5846969199999998 0.4308479500000000 C
atom_frac 0.1943114500000000 0.4153554300000000 0.5691864800000002 C
atom_frac 0.8141120500000000 0.6930366400000000 0.4628816600000000 C
atom_frac 0.1858425900000000 0.3070158100000000 0.5371158200000001 C
atom_frac 0.8991801000000000 0.5424819499999999 0.4672804700000000 C
atom_frac 0.1007746900000000 0.4575821400000000 0.5327698300000000 C
atom_frac 0.9022893500000000 0.4374922700000000 0.4116031500000000 C
atom_frac 0.0976652900000000 0.5625684700000000 0.5884532900000001 C
atom_frac -0.0005451300000000 0.6034471499999999 0.5575504600000001 C
atom_frac 1.0004980800000001 0.3966179700000000 0.4425014100000000 C
atom_frac 0.5068664300000000 0.7001428100000000 0.0894874600000000 C
atom_frac 0.4931436000000000 0.2998471900000000 0.9104865100000001 C
atom_frac 0.5149591400000000 0.8133529400000000 0.1380515800000000 C
atom_frac 0.4850551300000000 0.1866383000000000 0.8619299800000000 C
atom_frac 0.5923780900000000 0.8728373499999998 0.2496989200000000 C
atom_frac 0.4076495700000000 0.1271565100000000 0.7502688400000002 C
atom_frac 0.6045026200000000 0.9810851199999999 0.2903806500000000 C
atom_frac 0.3955105800000000 0.0189086400000000 0.7095985800000001 C
atom_frac 0.5384594400000000 1.0321321000000001 0.2235545100000000 C
atom_frac 0.4615122499999999 -0.0321514800000000 0.7764578700000001 C
atom_frac 0.5522803500000000 0.1487486100000000 0.2682669400000000 C
atom_frac 0.4476493200000000 0.8512266799999999 0.7317578200000000 C
atom_frac 0.4590675300000000 0.9708744400000000 0.1134379000000000 C
atom_frac 0.5408658400000000 0.0290985800000000 0.8866005900000000 C
atom_frac 0.4484815800000000 0.8631222500000000 0.0700187800000000 C
atom_frac 0.5514844600000000 0.1368602200000000 0.9299933199999999 C
atom_frac 0.2925181399999999 0.4430921999999999 0.0063598100000000 C
atom_frac 0.7074990899999999 0.5568211499999999 0.9935948300000002 C
atom_frac 0.1754323300000000 0.4085470900000000 0.0046334300000000 C
atom_frac 0.8245993400000000 0.5912922400000000 0.9953392700000001 C
atom_frac 0.1475842100000000 0.3937625900000000 0.1091453700000000 C
atom_frac 0.8525150300000000 0.6060835399999999 0.8908623800000001 C
atom_frac 0.0365397600000000 0.3616990500000000 0.1056833200000000 C
atom_frac 0.9635831500000001 0.6380946000000000 0.8943847900000002 C
atom_frac 0.9505889500000000 0.3431736000000000 -0.0014938100000000 C
atom_frac 0.0494897600000000 0.6565702100000002 1.0015822700000003 C
atom_frac 0.8306737300000000 0.3085904199999999 -0.0058614900000000 C
atom_frac 0.1694252100000000 0.6911613999999999 1.0060281000000000 C
atom_frac 0.9798701300000000 0.3575875800000000 -0.1053544500000000 C
atom_frac 0.0201438199999999 0.6421196799999999 1.1053979000000000 C
atom_frac 0.0905905100000000 0.3897777499999999 -0.1030708100000000 C
atom_frac 0.9094020999999999 0.6099773999999999 1.1030530900000000 C
atom_frac 0.9088966000000001 -0.0255227900000000 0.2672583200000000 C
atom_frac 0.0911075800000000 1.0255557799999999 0.7326647000000001 C
atom_frac 0.8623140600000000 -0.0432112800000000 0.1354660500000000 C
atom_frac 0.1376944300000000 1.0432566200000000 0.8644575300000000 C
atom_frac 0.7846742900000000 0.8626844699999999 0.0637770099999999 C
atom_frac 0.2153514300000000 0.1373569400000000 0.9361239500000001 C
atom_frac 0.7451557900000000 -0.1565096900000000 -0.0618541800000000 C
atom_frac 0.2548466599999999 1.1565891699999997 1.0617623800000000 C
atom_frac 0.7809892999999999 -0.0822854300000000 -0.1187439900000000 C
atom_frac 0.2189647900000000 1.0824074900000000 1.1186844100000002 C
atom_frac 0.7414171700000000 -0.1035394300000000 0.7458621000000001 C
atom_frac 0.2584726200000000 1.1037371300000001 0.2540948400000000 C
atom_frac 0.8569024899999999 0.0129075700000000 -0.0453583200000000 C
atom_frac 0.1430646999999999 0.9872030999999997 1.0453178700000001 C
atom_frac 0.8981088400000000 0.0321730400000000 0.0799060800000000 C
atom_frac 0.1018744999999999 0.9679052999999999 0.9200456300000001 C
atom_frac 0.8689379100000000 0.1215864600000000 0.5628201500000000 C
atom_frac 0.1310512600000000 0.8784494900000001 0.4371115000000000 C
atom_frac 0.7915461400000000 0.1888592000000000 0.5854332600000001 C
atom_frac 0.2084651600000000 0.8111900299999999 0.4145354000000001 C
atom_frac 0.6864922300000000 1.1474622400000001 0.5967600300000000 C
atom_frac 0.3135139300000000 -0.1473862500000000 0.4032084200000001 C
atom_frac 0.6098496399999999 1.2094067999999998 0.6032679399999999 C
atom_frac 0.3901644700000000 -0.2093184399999999 0.3966756600000000 C
atom_frac 0.6352596700000001 0.3132935100000000 0.5982274200000000 C
atom_frac 0.3647920400000000 0.6868131500000000 0.4017817700000000 C
atom_frac 0.5505124500000000 0.3774988699999999 0.5955542100000000 C
atom_frac 0.4495430100000000 0.6226127799999999 0.4044256800000000 C
atom_frac 0.7427057899999999 0.3553246099999999 0.5929430999999999 C
atom_frac 0.2573835500000000 0.6447815399999999 0.4071560700000000 C
atom_frac 0.8198060599999999 0.2942739500000000 0.5866259900000000 C
atom_frac 0.1802413500000000 0.7057933600000000 0.4134136200000000 C
atom_frac 0.8583279800000000 0.2582646399999999 0.2900168000000000 S
atom_frac 0.1416077600000000 0.7417776699999999 0.7100856000000000 S
atom_frac 0.6150287400000000 0.4921379800000000 0.2763765700000000 N
atom_frac 0.3849560500000000 0.5078826299999999 0.7236056500000000 N
atom_frac 0.8207936500000000 0.7838549200000000 0.4807780699999999 N
atom_frac 0.1791977400000000 0.2161994100000000 0.5191852900000000 N
atom_frac 0.8163307000000001 0.3653393099999999 0.3248156900000000 N
atom_frac 0.1836149700000000 0.6347149600000001 0.6752582700000000 N
atom_frac 0.9848531800000001 0.2952661800000000 0.3771182300000001 N
atom_frac 0.0150906299999999 0.7047886399999999 0.6229568400000000 N
atom_frac 0.5342877799999999 0.6478843399999997 0.1640173699999999 O
atom_frac 0.4657187300000000 0.3521044999999999 0.8359550500000000 O
atom_frac 0.4738805699999999 0.6586315399999999 0.9731294000000001 O
atom_frac 0.5261263599999999 0.3413585299999999 0.0268443100000000 O
atom_frac 0.3700678400000000 0.4510661100000000 0.1021487500000000 O
atom_frac 0.6299583500000001 0.5488810700000000 0.8978128800000000 O
atom_frac 0.3120070500000000 0.4633281399999999 0.9114630800000000 O
atom_frac 0.6879958100000000 0.5366127899999998 0.0884994800000000 O
atom_frac 0.8644293999999999 0.9113482399999998 0.3181178300000000 O
atom_frac 0.1355854100000000 0.0886693900000000 0.6817950100000001 O
atom_frac -0.0066917400000000 0.0522547600000000 0.3259395200000000 O
atom_frac 1.0066735799999997 0.9477988899999998 0.6739964500000000 O
atom_frac 0.8348672600000000 1.0223856800000000 0.5458493100000000 O
atom_frac 0.1651020400000000 -0.0223543300000000 0.4540383300000000 O
atom_frac 0.9644948800000001 0.1635023800000000 0.5553384700000001 O
atom_frac 0.0354987200000000 0.8365267799999999 0.4445990400000001 O
