#=======================================================
# FHI-aims file: ./geometry.in
# Created using the Atomic Simulation Environment (ASE)
# Wed Feb  9 14:46:18 2022
#=======================================================
lattice_vector 10.0797302700000007 -0.0009528800000000 -0.0001063600000000 
lattice_vector 0.0016588500000000 17.6887587500000016 0.0000503300000000 
lattice_vector 0.0000124700000000 -0.0000446600000000 18.8620614199999999 
atom_frac 0.0761456000000000 0.2499996500000000 0.2499981400000000 La
atom_frac 0.4238561599999999 0.7499973500000000 0.7500018300000000 La
atom_frac 0.9238526400000000 0.7499986199999999 0.7500013400000000 La
atom_frac 0.5761462600000000 0.2500002100000000 0.2499989400000000 La
atom_frac 1.0091675899999999 0.0556523900000000 0.2919186799999999 H
atom_frac 0.4908327800000000 0.9443482700000001 0.7919184000000001 H
atom_frac 1.0091692900000000 0.4443499400000000 0.2080817900000000 H
atom_frac 0.4908309900000000 0.5556509800000001 0.7080816499999999 H
atom_frac -0.0091670900000000 0.9443477900000000 0.7080812200000000 H
atom_frac 0.5091676700000000 0.0556516900000000 0.2080819400000000 H
atom_frac -0.0091684700000000 0.5556503100000000 0.7919180800000001 H
atom_frac 0.5091697400000000 0.4443496500000000 0.2919184200000000 H
atom_frac 0.6710472600000000 0.1273050200000000 0.4715178600000000 H
atom_frac 0.8289556400000000 0.8726951500000001 0.9715173800000000 H
atom_frac 0.6710437500000000 0.3726966800000001 0.0284838800000000 H
atom_frac 0.8289535699999999 0.6273035300000001 0.5284828200000000 H
atom_frac 0.3289535900000000 0.8726945200000001 0.5284818100000001 H
atom_frac 0.1710446600000000 0.1273049100000000 0.0284827800000000 H
atom_frac 0.3289561000000000 0.6273033200000000 0.9715163500000001 H
atom_frac 0.1710462500000000 0.3726963100000000 0.4715173899999999 H
atom_frac 0.1827085100000000 0.0776313700000000 0.5344474100000000 H
atom_frac 0.3172924500000000 0.9223676700000000 0.0344474500000000 H
atom_frac 0.1827050300000000 0.4223663100000001 0.9655521100000000 H
atom_frac 0.3172942700000000 0.5776322800000000 0.4655524200000001 H
atom_frac 0.8172909600000000 0.9223689699999998 0.4655526300000000 H
atom_frac 0.6827074200000000 0.0776324700000000 0.9655527699999998 H
atom_frac 0.8172952699999999 0.5776333800000000 0.0344477100000000 H
atom_frac 0.6827057399999999 0.4223674100000000 0.5344477500000000 H
atom_frac 0.9041811099999999 0.9774359600000002 0.3857346200000000 H
atom_frac 0.5958202800000000 0.0225633100000000 0.8857350200000003 H
atom_frac 0.9041813600000000 0.5225637700000000 0.1142650600000000 H
atom_frac 0.5958181600000000 0.4774357000000001 0.6142653700000000 H
atom_frac 0.0958195800000000 0.0225637900000000 0.6142651100000001 H
atom_frac 0.4041798000000000 0.9774368200000000 0.1142652600000000 H
atom_frac 0.0958198800000000 0.4774366500000001 0.8857348400000000 H
atom_frac 0.4041823600000000 0.5225645500000000 0.3857348800000000 H
atom_frac 1.0247051000000000 0.2587330100000000 0.4416728000000000 H
atom_frac 0.4752969300000000 0.7412679300000001 0.9416732699999999 H
atom_frac 1.0247011900000000 0.2412691500000000 0.0583248500000000 H
atom_frac 0.4752973300000000 0.7587319400000000 0.5583259400000000 H
atom_frac -0.0247041700000000 0.7412666000000000 0.5583275800000000 H
atom_frac 0.5247037000000000 0.2587318900000000 0.0583265700000000 H
atom_frac -0.0247013600000000 0.7587308000000001 0.9416750500000000 H
atom_frac 0.5247017899999999 0.2412674300000000 0.4416738500000000 H
atom_frac 0.7265815100000000 0.1109797300000000 0.6003123700000000 H
atom_frac 0.7734228100000000 0.8890204000000000 0.1003119200000000 H
atom_frac 0.7265728100000000 0.3890214000000001 0.8996887599999999 H
atom_frac 0.7734223099999999 0.6109787200000001 0.3996877600000000 H
atom_frac 0.2734180200000000 0.8890206000000002 0.3996876100000000 H
atom_frac 0.2265772800000000 0.1109796600000000 0.8996881499999999 H
atom_frac 0.2734265200000000 0.6109787700000000 0.1003114900000000 H
atom_frac 0.2265786100000000 0.3890218400000000 0.6003122000000000 H
atom_frac 0.2779442100000000 0.1483299400000000 0.4339073800000000 H
atom_frac 0.2220560200000000 0.8516702100000000 0.9339068300000001 H
atom_frac 0.2779424300000000 0.3516701800000000 0.0660931100000000 H
atom_frac 0.2220573500000000 0.6483296200000001 0.5660928999999999 H
atom_frac 0.7220556400000000 0.8516702900000001 0.5660927300000000 H
atom_frac 0.7779441400000000 0.1483298000000000 0.0660934000000000 H
atom_frac 0.7220577800000000 0.6483295100000001 0.9339067899999999 H
atom_frac 0.7779424200000000 0.3516700200000001 0.4339072000000000 H
atom_frac 0.9291679900000001 0.1712814500000000 0.6494019400000000 H
atom_frac 0.5708364300000000 0.8287192100000000 0.1494021900000000 H
atom_frac 0.9291572299999999 0.3287200300000000 0.8505967400000001 H
atom_frac 0.5708375400000000 0.6712808100000000 0.3505970700000000 H
atom_frac 0.0708314900000000 0.8287189300000001 0.3505983700000000 H
atom_frac 0.4291633300000000 0.1712810600000000 0.8505976600000000 H
atom_frac 0.0708420800000000 0.6712804500000001 0.1494033200000000 H
atom_frac 0.4291626300000000 0.3287192400000001 0.6494027999999999 H
atom_frac 0.0768034800000000 0.2474109400000001 0.5702130800000000 H
atom_frac 0.4231994200000000 0.7525905800000000 0.0702135600000000 H
atom_frac 0.0767949100000000 0.2525911300000000 0.9297840100000000 H
atom_frac 0.4232021400000001 0.7474105700000000 0.4297850699999999 H
atom_frac 0.9231960299999999 0.7525896100000000 0.4297874099999999 H
atom_frac 0.5768006700000000 0.2474095900000000 0.9297861900000000 H
atom_frac 0.9232048500000001 0.7474093000000002 0.0702159100000000 H
atom_frac 0.5767980400000000 0.2525894500000000 0.5702146500000000 H
atom_frac 0.8601106200000000 0.1347285500000000 0.1957955900000000 H
atom_frac 0.6398881300000000 0.8652707600000001 0.6957943700000000 H
atom_frac 0.8601128400000000 0.3652725000000000 0.3042054499999999 H
atom_frac 0.6398890900000000 0.6347268200000001 0.8042045200000000 H
atom_frac 0.1398903200000000 0.8652711100000000 0.8042046200000000 H
atom_frac 0.3601120700000000 0.1347290200000000 0.3042056400000000 H
atom_frac 0.1398874900000000 0.6347271900000000 0.6957945800000001 H
atom_frac 0.3601109300000000 0.3652728300000000 0.1957954400000000 H
atom_frac 0.9914377800000002 0.1048162900000000 0.1561534300000000 H
atom_frac 0.5085605800000000 0.8951817399999999 0.6561520800000000 H
atom_frac 0.9914407199999999 0.3951834700000000 0.3438477700000000 H
atom_frac 0.5085613500000000 0.6048145200000001 0.8438463600000000 H
atom_frac 0.0085625500000000 0.8951834000000001 0.8438463600000000 H
atom_frac 0.4914399800000000 0.1048182200000000 0.3438477500000000 H
atom_frac 0.0085592000000000 0.6048162700000000 0.6561524700000000 H
atom_frac 0.4914390400000000 0.3951850900000000 0.1561538800000000 H
atom_frac 0.0186224800000000 0.5580010700000000 0.5124679599999999 H
atom_frac 0.4813764099999999 0.4419987700000000 0.0124679800000000 H
atom_frac 0.0186223500000000 0.9419990000000001 0.9875320500000000 H
atom_frac 0.4813785000000000 0.0580012300000000 0.4875325700000001 H
atom_frac 0.9813775000000001 0.4419985400000001 0.4875320599999999 H
atom_frac 0.5186226700000000 0.5580007100000000 0.9875310699999998 H
atom_frac 0.9813784900000000 0.0580009400000000 0.0124685700000000 H
atom_frac 0.5186213300000000 0.9419987900000000 0.5124678100000000 H
atom_frac 0.1741645100000000 0.4471727900000000 0.3051494900000000 H
atom_frac 0.3258372500000000 0.5528266400000000 0.8051480900000000 H
atom_frac 0.1741633500000000 0.0528286100000000 0.1948513100000000 H
atom_frac 0.3258362600000000 0.9471713800000001 0.6948505300000000 H
atom_frac 0.8258361800000001 0.5528269000000000 0.6948506800000001 H
atom_frac 0.6741639600000000 0.4471728500000000 0.1948504100000000 H
atom_frac 0.8258364300000000 0.9471714400000001 0.8051495100000000 H
atom_frac 0.6741641300000000 0.0528287400000000 0.3051500600000000 H
atom_frac 0.3287150700000000 0.4918104899999999 0.2130705300000000 H
atom_frac 0.1712854800000000 0.5081888400000000 0.7130690200000001 H
atom_frac 0.3287143300000000 1.0081913200000001 0.2869307999999999 H
atom_frac 0.1712858500000000 -0.0081915900000000 0.7869298100000000 H
atom_frac 0.6712855700000000 0.5081893000000000 0.7869296900000000 H
atom_frac 0.8287145900000000 0.4918110200000000 0.2869297600000000 H
atom_frac 0.6712862800000000 -0.0081909600000000 0.7130698000000000 H
atom_frac 0.8287139500000000 1.0081915100000003 0.2130705600000000 H
atom_frac 0.1546416400000000 0.6737499400000001 0.3912557400000000 H
atom_frac 0.3453540100000000 0.3262496000000000 0.8912556700000002 H
atom_frac 0.1546416200000000 0.8262507400000000 0.1087455300000000 H
atom_frac 0.3453613900000000 0.1737490100000000 0.6087460000000000 H
atom_frac 0.8453568299999999 0.3262499000000000 0.6087438400000000 H
atom_frac 0.6546431400000000 0.6737502100000000 0.1087438800000000 H
atom_frac 0.8453604500000000 0.1737494200000000 0.8912548400000000 H
atom_frac 0.6546382200000000 0.8262510100000001 0.3912543700000000 H
atom_frac 0.3106760000000000 0.7179396400000000 0.2991158000000000 H
atom_frac 0.1893176300000000 0.2820605800000000 0.7991163000000000 H
atom_frac 0.3106759900000000 0.7820620900000002 0.2008857800000000 H
atom_frac 0.1893278000000000 0.2179380600000000 0.7008865399999999 H
atom_frac 0.6893220100000000 0.2820604600000000 0.7008836899999999 H
atom_frac 0.8106783499999999 0.7179397300000001 0.2008835700000000 H
atom_frac 0.6893266800000000 0.2179384300000000 0.7991143900000000 H
atom_frac 0.8106716200000000 0.7820618500000002 0.2991138100000000 H
atom_frac 0.4037065700000000 0.6260523600000000 0.2108971000000000 H
atom_frac 0.0962894600000000 0.3739478000000001 0.7108974400000000 H
atom_frac 0.4037061600000000 0.8739501100000001 0.2891037900000000 H
atom_frac 0.0962962300000000 0.1260500700000000 0.7891043600000001 H
atom_frac 0.5962927400000000 0.3739476500000001 0.7891027700000000 H
atom_frac 0.9037082300000000 0.6260525700000000 0.2891020500000000 H
atom_frac 0.5962956600000000 0.1260505400000000 0.7108965400000000 H
atom_frac 0.9037033299999999 0.8739497700000000 0.2108959400000000 H
atom_frac 0.8438416100000001 0.1939503000000000 0.4497674700000001 C
atom_frac 0.6561604700000000 0.8060510300000001 0.9497671399999998 C
atom_frac 0.8438383900000000 0.3060522100000000 0.0502324800000000 C
atom_frac 0.6561600900000000 0.6939491800000001 0.5502321600000000 C
atom_frac 0.1561592500000000 0.8060497000000000 0.5502325600000000 C
atom_frac 0.3438396700000000 0.1939492500000000 0.0502327000000000 C
atom_frac 0.1561618200000000 0.6939480900000000 0.9497677300000001 C
atom_frac 0.3438394500000000 0.3060508700000000 0.4497678700000000 C
atom_frac 0.0435299400000000 0.0552204100000000 0.3468602200000000 C
atom_frac 0.4564702600000000 0.9447800000000003 0.8468600100000000 C
atom_frac 0.0435314600000000 0.4447813000000000 0.1531401500000000 C
atom_frac 0.4564689099999999 0.5552192100000000 0.6531400700000000 C
atom_frac 0.9564704499999999 0.9447796300000001 0.6531396999999999 C
atom_frac 0.5435300500000000 0.0552200200000000 0.1531403000000000 C
atom_frac 0.9564693100000000 0.5552188500000000 0.8468597300000000 C
atom_frac 0.5435315800000000 0.4447810800000000 0.3468600500000000 C
atom_frac 0.7593888600000001 0.1533677800000000 0.4945185300000001 C
atom_frac 0.7406143600000000 0.8466325300000002 0.9945183199999998 C
atom_frac 0.7593840400000000 0.3466339800000001 0.0054821500000000 C
atom_frac 0.7406129800000000 0.6533664800000000 0.5054815600000000 C
atom_frac 0.2406120900000000 0.8466316800000001 0.5054811800000000 C
atom_frac 0.2593857600000000 0.1533675800000000 0.0054816800000000 C
atom_frac 0.2406158900000000 0.6533661500000001 0.9945180700000000 C
atom_frac 0.2593864600000000 0.3466330800000000 0.4945187300000000 C
atom_frac 0.0310469900000000 0.0201703500000000 0.4712889299999999 C
atom_frac 0.4689530900000000 0.9798296700000000 0.9712889300000001 C
atom_frac 0.0310473000000000 0.4798297300000001 0.0287110500000000 C
atom_frac 0.4689532200000000 0.5201702399999999 0.5287111599999998 C
atom_frac 0.9689531400000001 0.9798296300000001 0.5287109499999999 C
atom_frac 0.5310468100000000 0.0201705200000000 0.0287113200000000 C
atom_frac 0.9689535700000000 0.5201703900000000 0.9712888300000000 C
atom_frac 0.5310470900000001 0.4798297000000001 0.4712890499999999 C
atom_frac 0.1404647400000000 0.0687026100000000 0.4818988799999999 C
atom_frac 0.3595356800000000 0.9312972400000002 0.9818988200000001 C
atom_frac 0.1404634400000000 0.4312968500000000 0.0181009400000000 C
atom_frac 0.3595365800000000 0.5687027400000000 0.5181011200000000 C
atom_frac 0.8595351000000000 0.9312975600000000 0.5181011100000000 C
atom_frac 0.6404642400000000 0.0687029200000000 0.0181014100000000 C
atom_frac 0.8595371500000000 0.5687030600000001 0.9818989099999998 C
atom_frac 0.6404635600000000 0.4312970800000001 0.4818990499999999 C
atom_frac 0.9866167200000000 0.0142172900000000 0.4004003100000000 C
atom_frac 0.5133834200000000 0.9857827799999999 0.9004003200000000 C
atom_frac 0.9866179500000001 0.4857834100000000 0.0995997700000000 C
atom_frac 0.5133826100000000 0.5142167100000000 0.5995998100000000 C
atom_frac 0.0133837200000000 0.9857825799999999 0.5995995300000000 C
atom_frac 0.4866166400000000 0.0142173600000000 0.0995999600000000 C
atom_frac 0.0133830400000000 0.5142168499999999 0.9004001200000000 C
atom_frac 0.4866177900000000 0.4857834000000000 0.4004003800000000 C
atom_frac 0.9581603899999999 0.2276494900000000 0.4772370900000000 C
atom_frac 0.5418422000000001 0.7723515700000001 0.9772371399999999 C
atom_frac 0.9581553399999999 0.2723526300000000 0.0227614300000000 C
atom_frac 0.5418424500000000 0.7276485700000002 0.5227619100000001 C
atom_frac 0.0418403900000000 0.7723501600000000 0.5227632200000000 C
atom_frac 0.4581580300000000 0.2276485800000000 0.0227626400000000 C
atom_frac 0.0418446700000000 0.7276476100000001 0.9772386300000001 C
atom_frac 0.4581568700000000 0.2723508800000000 0.4772379500000000 C
atom_frac 0.7904101300000000 0.1448818900000000 0.5658258900000001 C
atom_frac 0.7095935000000000 0.8551184300000001 0.0658257500000000 C
atom_frac 0.7904030000000000 0.3551197200000000 0.9341744400000002 C
atom_frac 0.7095932500000000 0.6448808000000001 0.4341739300000000 C
atom_frac 0.2095901600000000 0.8551179500000001 0.4341740099999999 C
atom_frac 0.2904064300000000 0.1448818400000000 0.9341742100000000 C
atom_frac 0.2095967200000000 0.6448806500000001 0.0658257900000000 C
atom_frac 0.2904067200000000 0.3551190700000000 0.5658261800000000 C
atom_frac 0.1960380900000000 0.1086401300000000 0.4272429400000000 C
atom_frac 0.3039621900000000 0.8913599800000002 0.9272425500000000 C
atom_frac 0.1960373100000000 0.3913603300000000 0.0727572900000000 C
atom_frac 0.3039626700000000 0.6086396200000000 0.5727572500000000 C
atom_frac 0.8039618900000000 0.8913600199999999 0.5727571100000000 C
atom_frac 0.6960379200000000 0.1086400700000000 0.0727577000000000 C
atom_frac 0.8039631500000001 0.6086395400000001 0.9272425600000000 C
atom_frac 0.6960374000000000 0.3913602200000000 0.4272428700000000 C
atom_frac 0.9044622200000001 0.1786060700000000 0.5933003200000000 C
atom_frac 0.5955419800000000 0.8213942300000000 0.0933005800000000 C
atom_frac 0.9044528500000000 0.3213949600000000 0.9066984800000000 C
atom_frac 0.5955424400000000 0.6786053200000001 0.4066988500000000 C
atom_frac 0.0955380000000000 0.8213937900000001 0.4066998299999999 C
atom_frac 0.4044580700000001 0.1786058500000000 0.9066993300000000 C
atom_frac 0.0955465700000000 0.6786052500000002 0.0933015700000000 C
atom_frac 0.4044572200000000 0.3213942700000000 0.5933011500000001 C
atom_frac 0.9872516500000001 0.2206013400000000 0.5490853200000000 C
atom_frac 0.5127513200000000 0.7793997700000000 0.0490854500000000 C
atom_frac 0.9872442600000000 0.2794006300000000 0.9509129100000000 C
atom_frac 0.5127527500000000 0.7206006500000001 0.4509134699999999 C
atom_frac 0.0127485600000000 0.7793986500000000 0.4509150300000000 C
atom_frac 0.4872487900000000 0.2206004400000000 0.9509143400000001 C
atom_frac 0.0127554400000000 0.7205997100000001 0.0490870800000000 C
atom_frac 0.4872468699999999 0.2793989500000000 0.5490864099999999 C
atom_frac 0.8117898700000000 0.2001917400000000 0.3727664500000000 C
atom_frac 0.6882092400000001 0.7998175100000000 0.8727648700000000 C
atom_frac 0.8117916700000000 0.2998166100000000 0.1272348400000000 C
atom_frac 0.6882101400000000 0.7001909200000002 0.6272334099999999 C
atom_frac 0.1882097200000000 0.7998159200000001 0.6272343400000000 C
atom_frac 0.3117903900000000 0.2001843000000000 0.1272347700000000 C
atom_frac 0.1882095700000000 0.7001857200000000 0.8727657000000000 C
atom_frac 0.3117911500000000 0.2998177299999999 0.3727657200000000 C
atom_frac 0.2009102000000000 0.5070843600000000 0.3029548400000000 C
atom_frac 0.2990899200000000 0.4929151999999999 0.8029537600000000 C
atom_frac 0.2009092200000000 0.9929171300000003 0.1970462100000000 C
atom_frac 0.2990911100000000 0.0070828700000000 0.6970456200000000 C
atom_frac 0.7990900800000000 0.4929153600000000 0.6970452400000000 C
atom_frac 0.7009098499999999 0.5070844900000000 0.1970451800000000 C
atom_frac 0.7990914099999999 0.0070830600000000 0.8029543500000000 C
atom_frac 0.7009089200000000 0.9929171700000000 0.3029548400000000 C
atom_frac 0.0749766000000000 0.5313197000000001 0.4144334600000000 C
atom_frac 0.4250208800000000 0.4686799900000000 0.9144333300000000 C
atom_frac 0.0749774100000000 0.9686808000000001 0.0855668800000000 C
atom_frac 0.4250249199999999 0.0313192000000000 0.5855671900000000 C
atom_frac 0.9250229299999999 0.4686800500000000 0.5855664200000000 C
atom_frac 0.5749786300000000 0.5313194999999999 0.0855657000000000 C
atom_frac 0.9250228200000000 0.0313190900000000 0.9144338099999999 C
atom_frac 0.5749753500000000 0.9686809200000001 0.4144333200000000 C
atom_frac 0.1532577500000000 0.5579571000000000 0.3542187000000000 C
atom_frac 0.3467404200000000 0.4420424800000000 0.8542182100000000 C
atom_frac 0.1532574800000000 0.9420439399999999 0.1457822300000000 C
atom_frac 0.3467441400000000 0.0579560100000000 0.6457821799999999 C
atom_frac 0.8467420499999999 0.4420426300000000 0.6457812500000001 C
atom_frac 0.6532585800000000 0.5579571700000001 0.1457809100000000 C
atom_frac 0.8467434499999998 0.0579561800000000 0.8542183100000001 C
atom_frac 0.6532557500000000 0.9420440300000000 0.3542182300000000 C
atom_frac 0.2887323900000000 0.5323480600000000 0.2512793100000000 C
atom_frac 0.2112671600000000 0.4676515900000000 0.7512783700000000 C
atom_frac 0.2887313700000000 0.9676538300000003 0.2487218100000000 C
atom_frac 0.2112690900000000 0.0323461500000000 0.7487213000000000 C
atom_frac 0.7112676999999999 0.4676517600000001 0.7487207400000000 C
atom_frac 0.7887323700000000 0.5323483100000002 0.2487206000000000 C
atom_frac 0.7112693700000000 0.0323465000000000 0.7512787600000000 C
atom_frac 0.7887308700000000 0.9676538200000001 0.2512791400000000 C
atom_frac 0.1921011200000000 0.6343157000000001 0.3513532800000000 C
atom_frac 0.3078954800000000 0.3656840800000001 0.8513532500000001 C
atom_frac 0.1921004300000000 0.8656854300000000 0.1486479200000000 C
atom_frac 0.3079017800000000 0.1343145700000000 0.6486483199999999 C
atom_frac 0.8078979800000000 0.3656841300000001 0.6486464900000000 C
atom_frac 0.6921023300000000 0.6343157699999999 0.1486461700000000 C
atom_frac 0.8079011699999999 0.1343148000000000 0.8513525099999999 C
atom_frac 0.6920979300000000 0.8656854400000001 0.3513520700000000 C
atom_frac 0.2798461500000000 0.6586571600000002 0.2996955700000000 C
atom_frac 0.2201497900000000 0.3413427200000000 0.7996957700000000 C
atom_frac 0.2798450300000000 0.8413442800000001 0.2003057600000000 C
atom_frac 0.2201572600000000 0.1586556700000000 0.7003062700000000 C
atom_frac 0.7201527500000000 0.3413427900000001 0.7003041400000000 C
atom_frac 0.7798474500000000 0.6586573800000000 0.2003038100000000 C
atom_frac 0.7201569600000000 0.1586561300000000 0.7996945500000000 C
atom_frac 0.7798423700000000 0.8413442800000001 0.2996941000000000 C
atom_frac 0.3304819100000000 0.6075036500000000 0.2500796500000000 C
atom_frac 0.1695156600000000 0.3924962100000000 0.7500793800000000 C
atom_frac 0.3304799900000000 0.8924981400000001 0.2499218600000000 C
atom_frac 0.1695212500000000 0.1075018400000000 0.7499219200000000 C
atom_frac 0.6695176500000000 0.3924962600000000 0.7499203000000000 C
atom_frac 0.8304825900000000 0.6075039100000000 0.2499199100000000 C
atom_frac 0.6695214800000000 0.1075023200000000 0.7500785599999999 C
atom_frac 0.8304784600000001 0.8924980900000001 0.2500784400000000 C
atom_frac 0.1465852700000000 0.1026616900000000 0.3604126300000000 N
atom_frac 0.3534146800000000 0.8973386800000001 0.8604122799999999 N
atom_frac 0.1465864000000000 0.3973400500000001 0.1395878200000000 N
atom_frac 0.3534140400000000 0.6026603000000000 0.6395877599999999 N
atom_frac 0.8534150199999999 0.8973383900000000 0.6395873399999999 N
atom_frac 0.6465856400000000 0.1026612900000000 0.1395879900000000 N
atom_frac 0.8534141499999999 0.6026599300000001 0.8604120500000001 N
atom_frac 0.6465861899999999 0.3973397900000001 0.3604123699999999 N
atom_frac 0.1991513300000000 0.1432151900000000 0.3079074900000000 O
atom_frac 0.3008508800000000 0.8567845000000002 0.8079068600000000 O
atom_frac 0.1991506700000000 0.3567866800000001 0.1920934000000000 O
atom_frac 0.3008476700000000 0.6432130200000002 0.6920932500000000 O
atom_frac 0.8008491599999999 0.8567848700000000 0.6920925700000000 O
atom_frac 0.6991499400000000 0.1432151800000000 0.1920934400000000 O
atom_frac 0.8008495000000000 0.6432130700000002 0.8079064699999999 O
atom_frac 0.6991523100000000 0.3567869500000000 0.3079068400000000 O
atom_frac 0.9066385200000001 0.2128873900000000 0.3304138600000000 O
atom_frac 0.5933624500000000 0.7871130600000000 0.8304132600000000 O
atom_frac 0.9066405400000002 0.2871145000000000 0.1695855800000000 O
atom_frac 0.5933603700000000 0.7128856400000001 0.6695854600000001 O
atom_frac 0.0933636200000000 0.7871112800000001 0.6695865500000001 O
atom_frac 0.4066379500000000 0.2128870100000000 0.1695867200000000 O
atom_frac 0.0933599300000000 0.7128853600000000 0.8304144500000000 O
atom_frac 0.4066382000000000 0.2871129499999999 0.3304141800000000 O
atom_frac 0.6922735600000000 0.1928881400000000 0.3538279200000000 O
atom_frac 0.8077281100000000 0.8071090600000002 0.8538277500000001 O
atom_frac 0.6922745800000000 0.3071118400000000 0.1461736100000000 O
atom_frac 0.8077254200000000 0.6928859500000001 0.6461727900000002 O
atom_frac 0.3077284500000000 0.8071087900000000 0.6461713500000000 O
atom_frac 0.1922726700000000 0.1928904100000000 0.1461721200000000 O
atom_frac 0.3077254800000000 0.6928875799999999 0.8538267599999999 O
atom_frac 0.1922734000000000 0.3071106800000000 0.3538279800000000 O
atom_frac 0.9592613200000000 0.1281311100000000 0.2003236500000000 O
atom_frac 0.5407373900000000 0.8718680100000001 0.7003227099999999 O
atom_frac 0.9592638900000000 0.3718692300000001 0.2996772700000000 O
atom_frac 0.5407381600000000 0.6281296900000001 0.7996763900000000 O
atom_frac 0.0407397100000000 0.8718689600000000 0.7996760400000000 O
atom_frac 0.4592627000000001 0.1281312000000000 0.2996769100000000 O
atom_frac 0.0407365100000000 0.6281300100000000 0.7003230499999999 O
atom_frac 0.4592618000000001 0.3718703800000000 0.2003240400000000 O
atom_frac 0.0588278600000000 0.5808273800000001 0.4652892199999999 O
atom_frac 0.4411696200000000 0.4191725100000001 0.9652891900000000 O
atom_frac 0.0588285200000000 0.9191730100000001 0.0347111900000000 O
atom_frac 0.4411738400000000 0.0808271900000000 0.5347117600000000 O
atom_frac 0.9411720300000000 0.4191722600000001 0.5347107599999998 O
atom_frac 0.5588297700000000 0.5808269600000000 0.0347098400000000 O
atom_frac 0.9411720900000000 0.0808269100000000 0.9652894300000001 O
atom_frac 0.5588259700000000 0.9191728300000001 0.4652886300000000 O
atom_frac 0.0316082700000000 0.4645286199999999 0.4188416800000000 O
atom_frac 0.4683894800000000 0.5354712100000000 0.9188415300000000 O
atom_frac 0.0316104000000000 0.0354721600000000 0.0811580700000000 O
atom_frac 0.4683921200000000 0.9645280800000002 0.5811582900000000 O
atom_frac 0.9683919400000001 0.5354709500000000 0.5811583300000001 O
atom_frac 0.5316092900000000 0.4645284200000000 0.0811577300000000 O
atom_frac 0.9683907500000000 0.9645279200000002 0.9188423200000000 O
atom_frac 0.5316075900000000 0.0354718800000000 0.4188421000000000 O
