#=======================================================
# FHI-aims file: ./geometry.in
# Created using the Atomic Simulation Environment (ASE)
# Fri Jan 14 15:06:22 2022
#=======================================================
lattice_vector 8.9672664930000003 0.0363436030000000 2.6086727700000001 
lattice_vector 4.0979748169999999 11.3544315900000008 0.3590486240000000 
lattice_vector 0.1698843640000000 0.0271138870000000 15.9688478660000008 
atom_frac 0.2946650522875487 0.9729187639779155 0.0188560978777872 Ce
atom_frac 0.7053552677023659 0.0268683758814134 0.9814052959917772 Ce
atom_frac 0.9918564195894176 0.7994061593792736 0.0449885609126994 H
atom_frac 0.3483526880215351 0.2801915528488692 0.5135298116500380 H
atom_frac 0.1637592968801371 0.7126427863590903 0.5161425695023069 H
atom_frac 0.0772623918805094 0.4964287083481481 0.3288424876719134 H
atom_frac 0.0251547480687080 0.5970362971682804 0.1976106516375182 H
atom_frac 0.2008940038648746 0.8634104300651017 0.2542654917669012 H
atom_frac 0.2644998651397258 0.7583074691927436 0.3823442493780930 H
atom_frac 0.4561617500982961 0.4083994767765802 0.2680367443876364 H
atom_frac 0.4873209701085557 0.2685665411982967 0.1489487925439121 H
atom_frac 0.1589189176271831 0.1280638736233684 0.3260993800577765 H
atom_frac 0.1345258696757129 0.2641578452178307 0.4480605348684037 H
atom_frac 0.2362585826773582 0.2377402777442299 0.6423937678646681 H
atom_frac 0.2918230586632120 0.1264743848168095 0.7693234216054137 H
atom_frac 0.4869489247985470 0.3758578213208851 0.8331745957866088 H
atom_frac 0.4277195107372195 0.4899753139064130 0.7075322460141962 H
atom_frac 0.0468250349808770 0.5583444479870963 0.7540184552800397 H
atom_frac 0.9836356158937676 0.6889164794965125 0.8857490632944829 H
atom_frac 0.2822958483420236 0.8740758256035976 0.7360134484038738 H
atom_frac 0.3363312969399528 0.7489041396919874 0.6017465244671171 H
atom_frac 0.0099163801504218 0.1992917170629838 0.9543240764905505 H
atom_frac 0.6511620626300143 0.7199456637873282 0.4864900601228186 H
atom_frac 0.8370320421008659 0.2874611562151301 0.4839293877935376 H
atom_frac 0.9231590874942697 0.5035450494892116 0.6712890597297445 H
atom_frac 0.9761340305310567 0.4022381661884253 0.8020993613361681 H
atom_frac 0.7975054998527327 0.1372758255333935 0.7459943586604323 H
atom_frac 0.7334134765910250 0.2429794320509160 0.6181988135002854 H
atom_frac 0.5428404896160970 0.5919953473038007 0.7317485756940982 H
atom_frac 0.5111926798332219 0.7317713750040866 0.8509808712970042 H
atom_frac 0.8407150067123439 0.8719002278253284 0.6743370071500648 H
atom_frac 0.8653670236241452 0.7359053458721617 0.5522092064237896 H
atom_frac 0.7649273675480116 0.7616114836696113 0.3571709930407322 H
atom_frac 0.7094126256988175 0.8726355106468305 0.2300363840972679 H
atom_frac 0.5115677548526635 0.6242166520477352 0.1675345034507103 H
atom_frac 0.5711628574068399 0.5102450256737754 0.2931946168918670 H
atom_frac 0.9542684535814840 0.4415488657174649 0.2460752579134962 H
atom_frac 0.0172295600232388 0.3113081171458063 0.1142254582254978 H
atom_frac 0.7172870518796229 0.1267887721707410 0.2635831652115214 H
atom_frac 0.6637654107630694 0.2515207553470873 0.3979939642165107 H
atom_frac 0.2227819935053646 0.5526045501656470 0.4386216736059154 C
atom_frac 0.2720107589803291 0.4277533695789586 0.4399139336845578 C
atom_frac 0.3040210309398007 0.3762232333708369 0.5152272881463844 C
atom_frac 0.2876604653993980 0.4400605458916615 0.5911368761629063 C
atom_frac 0.2354807396233412 0.5649204160198809 0.5905300111676651 C
atom_frac 0.2084846531981129 0.6165839756627561 0.5142141877173428 C
atom_frac 0.1795923625065896 0.6172751520326472 0.3641853531991330 C
atom_frac 0.1087305701423631 0.5748028449055056 0.3116026524658010 C
atom_frac 0.0778167420877124 0.6314542720001199 0.2385318482803740 C
atom_frac 0.1121159575704453 0.7353308772086676 0.2169058559404178 C
atom_frac 0.1750091510392834 0.7825172157872802 0.2711283055565090 C
atom_frac 0.2085437315144815 0.7237659979440921 0.3433391379635892 C
atom_frac 0.0813927260803737 0.7953873928538469 0.1390488707438067 C
atom_frac 0.2930421328044233 0.3461682652466820 0.3664508408800344 C
atom_frac 0.3917209485754399 0.3465398025501258 0.2814413178996348 C
atom_frac 0.4084820991258269 0.2688047592638654 0.2142458817786093 C
atom_frac 0.3240986825137854 0.1899797879301559 0.2300880214728735 C
atom_frac 0.2260013093509555 0.1882812822886777 0.3149440989846966 C
atom_frac 0.2126671775068019 0.2642520482154325 0.3824278145743278 C
atom_frac 0.3328409115200230 0.1106887026299717 0.1584450157103204 C
atom_frac 0.3260869738983486 0.3735724600190195 0.6659275109913877 C
atom_frac 0.2927937553070734 0.2681668654560312 0.6832842325770869 C
atom_frac 0.3227225284484375 0.2057575317837533 0.7546421426410033 C
atom_frac 0.3908007047437109 0.2450221312831928 0.8099121547452697 C
atom_frac 0.4301470042385417 0.3471662506814042 0.7915303448567171 C
atom_frac 0.3968660951577903 0.4107087975661372 0.7210884524807710 C
atom_frac 0.4221316644475053 0.1764118485877688 0.8859647426556732 C
atom_frac 0.1973822598106451 0.6437135099650109 0.6688603907542400 C
atom_frac 0.0969539869703198 0.6283910408218958 0.7495516230191724 C
atom_frac 0.0621749370413553 0.7007830962776466 0.8234382867607977 C
atom_frac 0.1314636637093758 0.7882226100786622 0.8192271719574861 C
atom_frac 0.2287658177769316 0.8060977126019110 0.7389015578927242 C
atom_frac 0.2585904788542308 0.7359695862818256 0.6640719030550599 C
atom_frac 0.1049514355114667 0.8560607383965503 0.9014788504859794 C
atom_frac 0.7771772493640796 0.4476499503672500 0.5614776249761633 C
atom_frac 0.7277627754694506 0.5724621637879893 0.5601558351281141 C
atom_frac 0.6957558728919011 0.6239218535978069 0.4848334946747029 C
atom_frac 0.7124180423491495 0.5599434938352346 0.4089441872003762 C
atom_frac 0.7649983382206141 0.4350974347914800 0.4095003337494276 C
atom_frac 0.7919819542328881 0.3835113573231796 0.4858415010042521 C
atom_frac 0.8201704225783716 0.3830476250787526 0.6359839554093867 C
atom_frac 0.8916499793929162 0.4251537477512386 0.6883956940734350 C
atom_frac 0.9229252037556107 0.3681774764970811 0.7612926516618613 C
atom_frac 0.8881562598949699 0.2644890729203908 0.7829241418368864 C
atom_frac 0.8241582542212883 0.2178674197053141 0.7290141345493735 C
atom_frac 0.7903717487886865 0.2768903433103347 0.6569541980752192 C
atom_frac 0.9193113155534502 0.2040520511554079 0.8605870073464102 C
atom_frac 0.7065893243790171 0.6539983389027526 0.6336457427077350 C
atom_frac 0.6075618349504026 0.6536625440954040 0.7185385848960451 C
atom_frac 0.5905790308725543 0.7313399770317376 0.7858147348199153 C
atom_frac 0.6752360807360561 0.8099743341273039 0.7701338227977742 C
atom_frac 0.7736395020516014 0.8116778113391517 0.6853672843368626 C
atom_frac 0.7870855810178836 0.7358196326108056 0.6177938654887498 C
atom_frac 0.6665177859594208 0.8890705066384472 0.8418599620842215 C
atom_frac 0.6739652877517627 0.6262899272810288 0.3341290877134497 C
atom_frac 0.7079478702347046 0.7313770546246515 0.3164389682745963 C
atom_frac 0.6781365160486742 0.7935387888130877 0.2449735108539883 C
atom_frac 0.6093872106082898 0.7544024192924257 0.1900137725759875 C
atom_frac 0.5691908753817004 0.6526589933998892 0.2088103648377384 C
atom_frac 0.6025005599612853 0.5892729735404600 0.2793141735983227 C
atom_frac 0.5779870362851510 0.8230480716373166 0.1139948664235533 C
atom_frac 0.8031679997030494 0.3564258816433108 0.3310735584333385 C
atom_frac 0.9036983456336499 0.3717716754218260 0.2504358898342218 C
atom_frac 0.9383383245441052 0.2995828505333265 0.1764565344414066 C
atom_frac 0.8687188095528030 0.2123904877878856 0.1805113561435618 C
atom_frac 0.7710918712244987 0.1945950029349319 0.2607554783706689 C
atom_frac 0.7415331046353232 0.2644472689797582 0.3356800314473318 C
atom_frac 0.8954698337704557 0.1444194410430271 0.0982793899641763 C
atom_frac 0.1127331596084320 0.8868315554970393 0.1167166499532399 O
atom_frac 0.0162890995166550 0.7467792717660656 0.0938206069877907 O
atom_frac 0.2381181242150987 0.0529490118314797 0.1718675314904772 O
atom_frac 0.4338352563416522 0.1031654754831166 0.0817857599407503 O
atom_frac 0.5357324539180580 0.1797669832613877 0.9134669182074119 O
atom_frac 0.3329261468318450 0.1153199834119434 0.9178839492974973 O
atom_frac 0.2163958237774181 0.8869061780172843 0.9113363585309955 O
atom_frac 0.9702890901845298 0.8749514476265571 0.9611252663223552 O
atom_frac 0.8870254023588515 0.1130025354963919 0.8830435169786526 O
atom_frac 0.9857037203874981 0.2519267998137593 0.9054533987577783 O
atom_frac 0.7612837817811453 0.9467817480763044 0.8284911444687567 O
atom_frac 0.5656594697871711 0.8964497380825805 0.9185208990787359 O
atom_frac 0.4642989096732037 0.8198604581970346 0.0865319977622930 O
atom_frac 0.6672793090402604 0.8841149359456042 0.0821021276121385 O
atom_frac 0.7838614424365102 0.1138822097973460 0.0882901985646072 O
atom_frac 0.0304406107584541 0.1249847554662935 0.0388296518536748 O
