#=======================================================
# FHI-aims file: ./geometry.in
# Created using the Atomic Simulation Environment (ASE)
# Fri Jan 14 15:06:22 2022
#=======================================================
lattice_vector 4.9063315799999998 0.0000812860000000 0.0000426700000000 
lattice_vector 0.0001050840000000 9.6623314960000002 -0.0000119870000000 
lattice_vector -0.0000107550000000 -0.0000044060000000 9.7595413600000001 
atom_frac 0.4999948686627674 0.7499828816286463 0.8763513919125144 Cu
atom_frac 0.4999948319857737 0.2500226892688672 0.6236534523219106 Cu
atom_frac 0.5000039274957047 0.2499903778266912 0.1236248320450883 Cu
atom_frac 0.4999958102002109 0.7500147369902520 0.3763832254106488 Cu
atom_frac 0.0716046650181354 0.8755110042771364 0.7653604983932709 H
atom_frac 0.9283968146793453 0.6244556925831757 0.7653123845830264 H
atom_frac 0.0716532942673993 0.1244779702433831 0.7346460422881336 H
atom_frac 0.9283531626076140 0.3755323212008788 0.7346846152078256 H
atom_frac 0.9283676354115826 0.1244353467962611 0.2346474894348418 H
atom_frac 0.0716875842519187 0.3755537892677124 0.2346074839375518 H
atom_frac 0.9283210423314400 0.8755594561267439 0.2653332557701589 H
atom_frac 0.0716578623504276 0.6244647419745986 0.2653889493653309 H
atom_frac 0.2094161745766527 0.7785683869947703 0.6513964296485212 H
atom_frac 0.7905909198551057 0.7214085553607247 0.6513661532358910 H
atom_frac 0.2094326163206617 0.2214172341218870 0.8486048075561072 H
atom_frac 0.7905600731424158 0.2785797070522804 0.8486300022336906 H
atom_frac 0.7906295001808700 0.2213893478762897 0.3486095085961409 H
atom_frac 0.2094282571760289 0.2786061017850230 0.3485793315340402 H
atom_frac 0.7905885991471350 0.7785901783989856 0.1513857612818157 H
atom_frac 0.2093979590254733 0.7214163216090339 0.1514148726971030 H
atom_frac 0.6306826806695298 0.0186365949800305 0.9587667050131613 C
atom_frac 0.3692839954354312 0.4813542371824082 0.9587561205483862 C
atom_frac 0.6307059857211853 0.9813636720155468 0.5412421195356174 C
atom_frac 0.3692863577682530 0.5186504281052677 0.5412406448999150 C
atom_frac 0.3692529315273561 0.9813521892173181 0.0412248888144546 C
atom_frac 0.6307351819397270 0.5186459307137881 0.0412047337784500 C
atom_frac 0.3692153582357420 0.0186727198712475 0.4587761150090088 C
atom_frac 0.6307878508093054 0.4813445646266530 0.4587929585002256 C
atom_frac 0.7347163980624387 0.9254085495036717 0.8844062875638625 O
atom_frac 0.2652529920769807 0.5745872347245748 0.8843925396543427 O
atom_frac 0.7347319934962185 0.0745889321999158 0.6155862577422795 O
atom_frac 0.2652555976203246 0.4254253905973752 0.6156000122855971 O
atom_frac 0.2652110614814873 0.0745771299239095 0.1155904294871561 O
atom_frac 0.7347865668251855 0.4254253523559088 0.1155529450239356 O
atom_frac 0.2652260377400850 0.9254484943279450 0.3844381244730997 O
atom_frac 0.7347676564129344 0.5745696025678766 0.3844438377204540 O
atom_frac 0.2760392206625609 0.8597622308147024 0.0272347354831339 O
atom_frac 0.7239406790017709 0.6402224221115131 0.0272027930416385 O
atom_frac 0.2760556079314113 0.1402466520794974 0.4727763049147881 O
atom_frac 0.7239558152491766 0.3597696101714120 0.4727951090279205 O
atom_frac 0.7239045445091251 0.1402162038497536 0.9727671046792637 O
atom_frac 0.2760601547399942 0.3597756760381968 0.9727426917881559 O
atom_frac 0.7239024230739516 0.8598000889638934 0.5272337323756418 O
atom_frac 0.2760878206018020 0.6402253828205104 0.5272446423357735 O
atom_frac 0.2459371276554875 0.8442634382369358 0.7266099260681429 O
atom_frac 0.7540784490540984 0.6557218522125936 0.7265705858549082 O
atom_frac 0.2459519774062215 0.1557236383159050 0.7734053367327859 O
atom_frac 0.7540546496958312 0.3442711642654074 0.7734299874176216 O
atom_frac 0.7540779737898474 0.1557201705600164 0.2733878152354662 O
atom_frac 0.2459916828535427 0.3442762453447868 0.2733544059056356 O
atom_frac 0.7540162457162223 0.8442672155107044 0.2266077743593797 O
atom_frac 0.2459686044025631 0.6557238289133948 0.2266435770995300 O
