#=======================================================
# FHI-aims file: ./geometry.in
# Created using the Atomic Simulation Environment (ASE)
# Wed Feb  9 14:46:31 2022
#=======================================================
lattice_vector 7.8436856500000003 0.0038105900000000 -0.0007933200000000 
lattice_vector -0.0036111900000000 7.8435620600000000 -0.0016811300000000 
lattice_vector -0.0005561800000000 -0.0007045400000000 24.8550383400000001 
atom_frac 0.4999622000000000 0.0001127500000000 0.7500005700000002 Cu
    initial_moment         1.000000
atom_frac -0.0001278000000000 0.5001741900000000 0.2500003500000000 Cu
    initial_moment        -1.000000
atom_frac 0.0467587200000000 0.8014019100000001 0.9413263600000000 H
atom_frac 0.8855914200000000 0.7496702400000000 0.9902256100000001 H
atom_frac 0.8688857300000000 0.5756888000000001 0.9095052200000000 H
atom_frac 0.7573233699999999 0.4388265800000001 0.8245249300000000 H
atom_frac 0.5834534600000000 0.6106070099999998 0.7608976000000001 H
atom_frac 0.6428913999999999 0.0462715300000000 0.8545106200000001 H
atom_frac 0.9532097399999999 0.1985941700000000 0.9413589800000002 H
atom_frac 0.1144589600000000 0.2503294100000000 0.9902547600000000 H
atom_frac 0.1311152000000000 0.4243105600000001 0.9095879900000001 H
atom_frac 0.2425956900000000 0.5611934800000000 0.8246323000000001 H
atom_frac 0.4163562399999999 0.3894199800000001 0.7609623400000001 H
atom_frac 0.3569297599999999 0.9537062500000000 0.8544696400000000 H
atom_frac 0.8014924900000000 0.9532783200000001 0.0586512800000000 H
atom_frac 0.7496787200000000 0.1143952200000000 0.0097425000000000 H
atom_frac 0.5757120299999999 0.1313709500000000 0.0903893800000000 H
atom_frac 0.4388798000000000 0.2427668100000000 0.1753871200000001 H
atom_frac 0.6106943900000000 0.4164081500000000 0.2390916300000000 H
atom_frac 0.0463930700000000 0.3569112400000001 0.1455529900000000 H
atom_frac 0.1985763200000000 0.0467549400000000 0.0586654500000000 H
atom_frac 0.2503896500000000 0.8856598400000000 0.0097230500000000 H
atom_frac 0.4243309399999999 0.8689405600000000 0.0904400800000000 H
atom_frac 0.5611853000000000 0.7575453500000000 0.1754214400000000 H
atom_frac 0.3894389500000000 0.5836990700000000 0.2390467400000000 H
atom_frac 0.9538148100000000 0.6428500900000000 0.1454275700000000 H
atom_frac 0.5467610300000000 0.6984790199999998 0.4413595100000001 H
atom_frac 0.3856081500000000 0.7502804800000000 0.4902669600000000 H
atom_frac 0.3686511100000000 0.9242671600000000 0.4096415200000000 H
atom_frac 0.2572636600000000 1.0611346300000002 0.3246592800000000 H
atom_frac 0.0836593400000000 0.8893318400000000 0.2609426800000000 H
atom_frac 0.1431769700000000 0.4535833300000001 0.3544361400000001 H
atom_frac 0.4532922899999999 0.3013910600000000 0.4413214600000000 H
atom_frac 0.6143392699999999 0.2495621600000000 0.4902673100000000 H
atom_frac 0.6310819299999999 0.0756353600000000 0.4095273700000001 H
atom_frac 0.7424865300000000 -0.0611848900000000 0.3245308200000001 H
atom_frac 0.9163701700000000 0.1105802600000000 0.2609194500000000 H
atom_frac 0.8572440799999999 0.5461633400000001 0.3545860800000001 H
atom_frac 0.3013972000000000 0.5467520600000001 0.5586439800000002 H
atom_frac 0.2496772500000000 0.3855069900000000 0.5097389900000000 H
atom_frac 0.0756924600000000 0.3689307100000000 0.5904315700000000 H
atom_frac -0.0611956000000000 0.2574602400000000 0.6753871400000000 H
atom_frac 0.1105537800000000 0.0836453700000000 0.7390344800000003 H
atom_frac 0.5462426000000000 0.1429672800000000 0.6454955400000001 H
atom_frac 0.6985926500000000 0.4532036300000001 0.5586663200000002 H
atom_frac 0.7503207399999999 0.6143951100000001 0.5097796800000000 H
atom_frac 0.9243009100000000 0.6311647100000000 0.5904740600000001 H
atom_frac 1.0611592399999998 0.7427514900000000 0.6754518300000002 H
atom_frac 0.8893606399999999 0.9165694900000001 0.7391032000000000 H
atom_frac 0.4536755800000000 0.8569978900000002 0.6455282300000001 H
atom_frac 0.9383747900000000 0.8526911900000000 0.9647792400000001 C
atom_frac 0.7626047999999999 0.8226119000000001 0.8871847500000000 C
atom_frac 0.7964147899999999 0.6493869500000000 0.8800981800000001 C
atom_frac 0.7325984700000000 0.5735006200000000 0.8330906000000001 C
atom_frac 0.6343788100000000 0.6676505000000000 0.7976785300000001 C
atom_frac 0.6663420399999999 0.9098253500000000 0.8491160200000001 C
atom_frac 0.0616261300000000 0.1473036300000000 0.9647963100000001 C
atom_frac 0.2373050700000000 0.1773738600000000 0.8872009500000001 C
atom_frac 0.2035252400000000 0.3506137600000000 0.8801584300000003 C
atom_frac 0.2673013800000000 0.4265102700000000 0.8331667200000002 C
atom_frac 0.3654592800000000 0.3323653400000001 0.7977292400000002 C
atom_frac 0.3335013200000000 0.0901597600000000 0.8491093700000001 C
atom_frac 0.8527324800000000 0.0616528700000000 0.0351966300000000 C
atom_frac 0.8226807500000000 0.2374227100000000 0.1127961400000000 C
atom_frac 0.6494352199999999 0.2036994400000000 0.1198376500000000 C
atom_frac 0.5735649200000000 0.2674450400000000 0.1668518800000000 C
atom_frac 0.6677330799999999 0.3655344800000000 0.2023086300000000 C
atom_frac 0.9099323900000000 0.3335350600000000 0.1509082500000000 C
atom_frac 0.1473420300000000 0.9383780299999999 0.0351863100000000 C
atom_frac 0.1774394600000000 0.7626186000000000 0.1127586100000000 C
atom_frac 0.3506449800000000 0.7964898300000000 0.1198476900000000 C
atom_frac 0.4265276299999999 0.7327628600000000 0.1668551900000000 C
atom_frac 0.3323927500000000 0.6345549100000001 0.2022650100000001 C
atom_frac 0.0902443000000000 0.6663701400000001 0.1508251800000000 C
atom_frac 0.4383744200000000 0.6472296700000000 0.4648085500000000 C
atom_frac 0.2626360700000000 0.6772937900000001 0.3872121300000000 C
atom_frac 0.2963403900000000 0.8505506700000001 0.3801871600000001 C
atom_frac 0.2325992200000000 0.9264401200000001 0.3331821500000001 C
atom_frac 0.1345299700000000 0.8322790200000001 0.2977185000000000 C
atom_frac 0.1665427300000000 0.5900511900000001 0.3490938600000000 C
atom_frac 0.5616509200000001 0.3526165600000000 0.4648077100000000 C
atom_frac 0.7374433499999999 0.3225302400000001 0.3872338300000000 C
atom_frac 0.7035515599999999 0.1493314700000000 0.3801269900000001 C
atom_frac 0.7672831100000000 0.0734669900000000 0.3331103200000000 C
atom_frac 0.8655112400000000 0.1676120600000000 0.2977084100000000 C
atom_frac 0.8337121300000000 0.4097374200000001 0.3491745300000000 C
atom_frac 0.3526927300000000 0.4383350300000001 0.5351999800000000 C
atom_frac 0.3226031400000000 0.2626647400000000 0.6127906600000002 C
atom_frac 0.1493776000000000 0.2964893400000000 0.6198494400000001 C
atom_frac 0.0734779800000000 0.2327232600000000 0.6668419300000001 C
atom_frac 0.1676108300000000 0.1345352100000000 0.7022662700000000 C
atom_frac 0.4097997500000000 0.1664355900000000 0.6508697900000001 C
atom_frac 0.6472990700000000 0.5615917700000000 0.5352232300000000 C
atom_frac 0.6773575799999999 0.7373649799999999 0.6128247600000000 C
atom_frac 0.8505934900000000 0.7036053700000000 0.6198931000000000 C
atom_frac 0.9264776000000000 0.7674393700000001 0.6668986700000001 C
atom_frac 0.8323190399999999 0.8656291300000000 0.7023248300000001 C
atom_frac 0.5901299099999999 0.8335937000000001 0.6509070500000002 C
atom_frac 1.0000204900000000 0.0000067900000000 -0.0000095200000000 C
atom_frac 0.5000032700000000 0.4999417800000001 0.5000088900000002 C
atom_frac 0.5963266000000000 0.8338842800000001 0.8056283200000001 N
atom_frac 0.4034947400000000 0.1661137400000000 0.8056381100000001 N
atom_frac 0.8339978300000001 0.4035267400000000 0.1944007100000000 N
atom_frac 0.1661876800000000 0.5964312800000001 0.1943122000000000 N
atom_frac 0.0965520800000000 0.6660038600000001 0.3056113200000000 N
atom_frac 0.9036500900000000 0.3338110400000000 0.3056773800000000 N
atom_frac 0.3338441200000000 0.0964619900000000 0.6943425900000001 N
atom_frac 0.6660692199999999 0.9036357200000001 0.6943920900000001 N
atom_frac 0.8126968899999999 0.9189607800000000 0.9297039200000001 O
atom_frac 0.1872446300000000 0.0810153400000000 0.9297007800000001 O
atom_frac 0.9190030800000000 0.1873727200000000 0.0702733200000000 O
atom_frac 0.0811156700000000 0.8126316299999999 0.0702330200000000 O
atom_frac 0.3126852300000000 0.5809541600000000 0.4297247600000000 O
atom_frac 0.6874294700000000 0.4188387900000000 0.4297697600000000 O
atom_frac 0.4189621900000000 0.3127077100000000 0.5702872300000001 O
atom_frac 0.5810079099999998 0.6872516700000001 0.5703104400000001 O
