#=======================================================
# FHI-aims file: ./geometry.in
# Created using the Atomic Simulation Environment (ASE)
# Fri Jan 14 15:06:22 2022
#=======================================================
lattice_vector 5.5024807820000001 0.0000000000000000 -0.3536640000000000 
lattice_vector -2.1588789290000001 8.8318565840000005 -2.5773860000000002 
lattice_vector 0.4068213940000000 -0.0788830790000000 13.2171159970000005 
atom_frac 0.0000047880951755 0.9999995927660450 0.9999988383833340 Mn
atom_frac 0.7180478660370184 0.4244315615124421 0.5101053548009064 H
atom_frac 0.5620550770618352 0.3880275630635098 0.9228061142987941 H
atom_frac 0.2568568031464764 0.3421452837785210 0.0532189827920462 H
atom_frac 0.5635182777606645 0.9365682178895582 0.8091238620775343 H
atom_frac 0.3993394392288678 0.7523826663604396 0.6356978735953120 H
atom_frac 0.0219586760745472 0.5459802152384370 0.6588099671837782 H
atom_frac 0.1674242680670303 0.7465856471002111 0.8304361808937771 H
atom_frac 0.2819518548205693 0.5755691710501551 0.4898943268523369 H
atom_frac 0.4379450183711029 0.6119743105984767 0.0771945564906105 H
atom_frac 0.7431428644318461 0.6578554555407550 0.9467814553478321 H
atom_frac 0.4364854455475681 0.0634336566409743 0.1908769059560385 H
atom_frac 0.6006602283494544 0.2476180729588364 0.3643025645445591 H
atom_frac 0.9780428587206914 0.4540205177584368 0.3411897630915491 H
atom_frac 0.8325772667282081 0.2534150858966627 0.1695635493815502 H
atom_frac 0.5527795830088564 0.1430538077214578 0.9626996632700583 C
atom_frac 0.8950158719395986 0.3442286119788633 0.9867481606129261 C
atom_frac 0.7550609682051714 0.4366501355411785 0.9567498561237927 C
atom_frac 0.1429110273937937 0.4107477822645791 0.0299874851080943 C
atom_frac 0.6626644278601361 0.8494885971910335 0.7728078176882889 C
atom_frac 0.5702111009877130 0.7444961168012939 0.6752136403541726 C
atom_frac 0.6939249588872585 0.6284127638622081 0.6304445340686301 C
atom_frac 0.6042974632610197 0.5083504902274641 0.5319090561244907 C
atom_frac 0.9153604688946757 0.6317845952608822 0.6882456670409027 C
atom_frac 0.9973908428719940 0.7429315069944450 0.7845094574711595 C
atom_frac 0.4472182706318222 0.8569469311635488 0.0373007262477288 C
atom_frac 0.1049819817010800 0.6557721269061361 0.0132522289048680 C
atom_frac 0.2449368854355072 0.5633506033438209 0.0432505333939943 C
atom_frac 0.8570882123299199 0.5892518227119937 0.9700127203822576 C
atom_frac 0.3373370536558369 0.1505121425625191 0.2271926690736735 C
atom_frac 0.4297885133113581 0.2555046292746611 0.3247875542723406 C
atom_frac 0.3060742275571968 0.3715868478710432 0.3695564279083570 C
atom_frac 0.3957022043173098 0.4916502490918120 0.4680913820153876 C
atom_frac 0.0846410126212973 0.3682161444926705 0.3117548197210597 C
atom_frac 0.0026106919232376 0.2570692260024288 0.2154902728041677 C
atom_frac 0.3334982553502641 0.0904453922064477 0.9478678266469914 N
atom_frac 0.7908811740058894 0.1899819122805511 0.9773072221973894 N
atom_frac 0.8726824775826073 0.8497359784133209 0.8283943329767071 N
atom_frac 0.6665027983111004 0.9095542132044017 0.0521324274654448 N
atom_frac 0.2091185468516983 0.8100188202820533 0.0226924594558540 N
atom_frac 0.1273185760787570 0.1502636269975284 0.1716059211357291 N
