#=======================================================
# FHI-aims file: ./geometry.in
# Created using the Atomic Simulation Environment (ASE)
# Wed Feb  9 14:46:32 2022
#=======================================================
lattice_vector 6.7974447600000003 0.0015900100000000 -0.0029069000000000 
lattice_vector 0.0015870300000000 6.8025404399999996 0.0849995100000000 
lattice_vector -0.0002499900000000 0.0061316800000000 15.4948500700000000 
atom_frac 0.4999804500000000 0.4981009800000001 0.2494636300000000 Cu
    initial_moment         1.000000
atom_frac 0.4999570100000000 0.4977130600000000 0.7500720200000000 Cu
    initial_moment        -1.000000
atom_frac 0.5000405099999999 0.9974881700000002 1.0013721900000001 Ni
    initial_moment        -2.000000
atom_frac -0.0000395500000000 0.5019192000000001 0.4986787300000000 Ni
atom_frac 0.5000510999999999 0.1902974200000000 0.3993479500000000 H
atom_frac 0.5000530699999999 0.8169512500000001 0.4026096000000000 H
atom_frac 0.4999794599999999 0.1855365300000000 0.6008155599999999 H
atom_frac 0.8136341899999999 0.5012723900000000 0.0989282700000000 H
atom_frac 0.8134563800000000 0.4968885800000000 0.8984209099999999 H
atom_frac 0.1864299200000000 0.4969733700000001 0.8984994100000000 H
atom_frac 0.1866723200000000 0.5013950200000000 0.0990516800000000 H
atom_frac 0.4999269700000000 0.8127815600000001 0.6024245499999999 H
atom_frac 1.0001497200000000 1.0041586600000001 0.3586290100000000 H
atom_frac 0.9998549599999998 1.0003578200000001 0.6414924300000000 H
atom_frac 1.0000494900000001 1.0030199700000002 0.1415545600000000 H
atom_frac 1.0000213300000000 0.9962118900000001 0.8586144400000000 H
atom_frac 0.5000740900000000 0.1065463800000000 0.1915056500000000 C
atom_frac 0.5000793900000000 0.8944592200000001 0.1935404000000000 C
atom_frac 0.4999796800000000 0.1034764400000000 0.8097613900000000 C
atom_frac 0.8938574400000000 0.5036851900000001 0.3074510600000000 C
atom_frac 0.8935338800000000 0.4987476300000001 0.6897195900000000 C
atom_frac 0.1063085200000000 0.4987979500000001 0.6897706200000000 C
atom_frac 0.1062435300000000 0.5037883700000000 0.3075187700000000 C
atom_frac 0.4999563299999999 0.8908680700000002 0.8108463100000000 C
atom_frac 0.4999818100000000 0.1042362300000000 0.3401642600000000 C
atom_frac 0.4999913899999999 0.9006075300000000 0.3419573300000000 C
atom_frac 0.4999790700000000 0.1005699100000000 0.6611595400000000 C
atom_frac 0.8982072299999999 0.4990997200000001 0.1589665300000000 C
atom_frac 0.8980317799999998 0.4972765500000000 0.8384427400000000 C
atom_frac 0.1018585800000000 0.4973270100000000 0.8384866700000000 C
atom_frac 0.1019784200000000 0.4992067300000001 0.1590250500000000 C
atom_frac 0.4999476600000000 0.8968594200000001 0.6620667000000000 C
atom_frac 1.0001424199999998 1.0037601500000000 0.2891133700000000 C
atom_frac 0.9998999500000000 0.9990017800000000 0.7110230999999999 C
atom_frac 1.0000894499999999 1.0040432900000003 0.2110646800000000 C
atom_frac 0.9999669199999999 0.9973034800000000 0.7890852200000000 C
atom_frac 0.5000148100000000 0.2275311700000000 0.0937671900000000 S
atom_frac 0.4999917000000000 0.7703969100000000 0.0978901200000000 S
atom_frac 0.5000484799999999 0.2257711900000000 0.9055388000000000 S
atom_frac 0.7714800100000000 0.5014727900000001 0.4041302300000000 S
atom_frac 0.7712192000000000 0.4997678900000001 0.5931307300000001 S
atom_frac 0.2286563500000000 0.4998981300000001 0.5932459600000000 S
atom_frac 0.2285324100000000 0.5016934300000001 0.4042733200000000 S
atom_frac 0.4999885399999999 0.7685633800000001 0.9081746400000000 S
atom_frac 0.5001372700000000 0.2049165700000000 0.2649086500000000 N
atom_frac 0.5001546900000000 0.7976843899999999 0.2683917800000000 N
atom_frac 0.4999384299999999 0.2018553500000000 0.7351727099999998 N
atom_frac 0.7961124100000000 0.5048012300000000 0.2332586500000000 N
atom_frac 0.7959555299999999 0.4977129200000000 0.7639953300000000 N
atom_frac 0.2039164500000000 0.4977937100000001 0.7640777700000000 N
atom_frac 0.2040128000000000 0.5049699300000001 0.2333744600000000 N
atom_frac 0.4998960900000000 0.7941068400000001 0.7368920000000000 N
