#=======================================================
# FHI-aims file: ./geometry.in
# Created using the Atomic Simulation Environment (ASE)
# Tue Nov 30 12:20:15 2021
#=======================================================
lattice_vector 15.2485300739999996 -0.0004116140000000 0.0001463710000000 
lattice_vector -0.0003145780000000 14.6302083459999999 8.4451012440000000 
lattice_vector 0.0004777240000000 -14.6311914959999996 8.4468041219999996 
atom_frac 0.2498095415202499 0.7324618088646491 0.4649331563962491 Fe
atom_frac 0.2498255625600549 0.7324434946852066 0.2675324219690510 Fe
atom_frac 0.2503703942060369 0.5346557895542929 0.2673201659402978 Fe
atom_frac 0.7497357802052207 0.2674695069947435 0.5349281371876842 Fe
atom_frac 0.7499132200961184 0.2675876536875281 0.7324054539519410 Fe
atom_frac 0.7503566780525832 0.4652995738834705 0.7326437395640042 Fe
atom_frac 0.4447353403729367 0.9360092066344309 0.5949779722262180 H
atom_frac 0.4447974141928200 0.6589589993736170 0.0639424593493062 H
atom_frac 0.4447441448060944 0.4050104993100234 0.3410757712843093 H
atom_frac 0.9447255938797169 0.0639836318437831 0.4050411754878526 H
atom_frac 0.9447723835216948 0.3410222311790039 0.9360527756725006 H
atom_frac 0.9447515476143806 0.5950011801008447 0.6589328258510889 H
atom_frac 0.5552296043438431 0.0639315338789361 0.6589403961314846 H
atom_frac 0.5552432774109662 0.3410447466634069 0.4049852778365945 H
atom_frac 0.5552856548014306 0.5949541759769233 0.9360061339679435 H
atom_frac 0.0552316533713935 0.9360725004152431 0.3410763214519223 H
atom_frac 0.0552442133695976 0.6589812289453294 0.5950130540401802 H
atom_frac 0.0552549553710193 0.4050268187756600 0.0639779747909301 H
atom_frac 0.5552506754909456 0.0639250050969197 0.4050153807197178 H
atom_frac 0.5552528716120192 0.3410117101558472 0.9360286085992657 H
atom_frac 0.5552556428993969 0.5949876810170311 0.6589589910173927 H
atom_frac 0.0552341909469263 0.9360733349748857 0.5950011101304611 H
atom_frac 0.0552326512389385 0.6589634312551597 0.0639530661177758 H
atom_frac 0.0552620144835814 0.4050286821130983 0.3410406637194042 H
atom_frac 0.4447432959773964 0.9360182594044206 0.3410480335483329 H
atom_frac 0.4447781531618278 0.6589832359302720 0.5950232394707199 H
atom_frac 0.4447528275390483 0.4050055901750512 0.0639273362884366 H
atom_frac 0.9447360008215142 0.0639833251638180 0.6589730244381116 H
atom_frac 0.9447824637422855 0.3410364391087272 0.4049844658016752 H
atom_frac 0.9447317161805273 0.5949780323881843 0.9360655086823186 H
atom_frac 0.2500041611930683 0.9338353000988989 0.6233588083770841 H
atom_frac 0.2500572369513492 0.6895871579043418 0.0662120283281026 H
atom_frac 0.2499427914970624 0.3766488875956142 0.3104565216101918 H
atom_frac 0.7500362874041783 0.0661495262997179 0.3766277427114701 H
atom_frac 0.7500369874775644 0.3104370898785263 0.9337954862568340 H
atom_frac 0.7499343618746224 0.6233684258082665 0.6895768717926247 H
atom_frac 0.7499864805128951 0.0661780063667195 0.6895507668593553 H
atom_frac 0.7500642792831015 0.3104139609046044 0.3766386480615651 H
atom_frac 0.7499522857440086 0.6233620433152042 0.9338294753072488 H
atom_frac 0.2500152753969971 0.9338413156432639 0.3104723290251529 H
atom_frac 0.2500496192274682 0.6895792029498086 0.6233466692575008 H
atom_frac 0.2499412626236577 0.3766297645551050 0.0661879824133250 H
atom_frac 0.2500141276615224 0.0255454617464680 0.7956298379057503 H
atom_frac 0.2500088009975202 0.7701986370885551 0.9745517735302939 H
atom_frac 0.2499804545853479 0.2044248150282969 0.2298982103010020 H
atom_frac 0.7500191066552733 0.9744453031705478 0.2043756374605081 H
atom_frac 0.7500014804105959 0.2298266295552267 0.0254724820493593 H
atom_frac 0.7499819524529628 0.7955987791751654 0.7701537635649914 H
atom_frac 0.7500059732365827 0.9744756266405121 0.7701309039644144 H
atom_frac 0.7500135815693768 0.2298076929954363 0.2043815579041492 H
atom_frac 0.7499803608435088 0.7955895712105630 0.0255121042193450 H
atom_frac 0.2500141446388043 0.0255526856669377 0.2299128001095880 H
atom_frac 0.2500078486582282 0.7701965112472710 0.7956223198474177 H
atom_frac 0.2499813904734723 0.2044105680568225 0.9745218840757772 H
atom_frac 0.4381504519676156 0.9291070848776359 0.4645629770140474 C
atom_frac 0.4382497559134181 0.5354488923056594 0.0708724551664303 C
atom_frac 0.4382243054503903 0.5354584665412646 0.4645833901311106 C
atom_frac 0.9381446230349014 0.0708871167452402 0.5354585876147553 C
atom_frac 0.9382204184537812 0.4645367533903626 0.9291268797577176 C
atom_frac 0.9382334089698220 0.4645559438315774 0.5354262541614574 C
atom_frac 0.5617667051923405 0.0708725165566763 0.5354477421972562 C
atom_frac 0.5618010596031980 0.4645618381843662 0.5354304356687863 C
atom_frac 0.5618359429902071 0.4645339080413608 0.9291113852623242 C
atom_frac 0.0617633532093578 0.9291267606459714 0.4645652178971246 C
atom_frac 0.0618090074502504 0.5354576717153564 0.4645658460601254 C
atom_frac 0.0618069136356425 0.5354457903731317 0.0708737925301648 C
atom_frac 0.3710800091132497 0.8542806259894605 0.4271484522746363 C
atom_frac 0.3710981057893505 0.5727458088535117 0.1455792417337846 C
atom_frac 0.3710820702176251 0.5727604159692633 0.4271717362940280 C
atom_frac 0.8710736114246133 0.1457102997338355 0.5728763443129098 C
atom_frac 0.8710856822498060 0.4272235357326510 0.8544103048913740 C
atom_frac 0.8710945040968739 0.4272469825452205 0.5728401420646135 C
atom_frac 0.6289099421373977 0.1455912406364491 0.5727852935297975 C
atom_frac 0.6289124723662242 0.4271275815670280 0.5727494334115804 C
atom_frac 0.6289161111487047 0.4271056422790523 0.8543074338843654 C
atom_frac 0.1289078148254603 0.8544093601404300 0.4272074419280615 C
atom_frac 0.1289092204890210 0.5728875143893007 0.4272181548034907 C
atom_frac 0.1289088604862485 0.5728744269750410 0.1456442670872775 C
atom_frac 0.4693205660482322 0.9647738127212694 0.5541502693186759 C
atom_frac 0.4694071198939939 0.5893731297854927 0.0352068707387543 C
atom_frac 0.4693727228091334 0.4458518386338782 0.4106461248846003 C
atom_frac 0.9693129768378770 0.0352154890704952 0.4458632751201038 C
atom_frac 0.9693792250343377 0.4106101427306684 0.9647890215181292 C
atom_frac 0.9693847671480499 0.5541623163103964 0.5893615113395894 C
atom_frac 0.5306065225990579 0.0351998716143955 0.5893691605878717 C
atom_frac 0.5306377827405413 0.4106321063700663 0.4458375692501876 C
atom_frac 0.5306867863425923 0.5541408149679160 0.9647811076596968 C
atom_frac 0.0306014629101838 0.9647972684251375 0.4106482000706181 C
atom_frac 0.0306495556005402 0.5893870424212652 0.5541648889966526 C
atom_frac 0.0306569505396297 0.4458418487379703 0.0352081043921260 C
atom_frac 0.5306097070691040 0.0351974761184836 0.4458569217870050 C
atom_frac 0.5306687419946242 0.4106117883482415 0.9647784041398141 C
atom_frac 0.5306539537093330 0.5541672576664637 0.5893712768336670 C
atom_frac 0.0306054922185695 0.9648026240571286 0.5541633986057022 C
atom_frac 0.0306369584039743 0.5893717174093851 0.0352123344485663 C
atom_frac 0.0306628957795638 0.4458539419739225 0.4106291304661838 C
atom_frac 0.4693250621823212 0.9647776120580006 0.4106401240692744 C
atom_frac 0.4693797127781565 0.5893910912599054 0.5541757321243708 C
atom_frac 0.4694002242008609 0.4458384332696639 0.0351991808614044 C
atom_frac 0.9693196294729846 0.0352253550277483 0.5893775158328864 C
atom_frac 0.9693876142993147 0.4106251144271341 0.4458298536000171 C
atom_frac 0.9693657908457710 0.5541438137918534 0.9647977369956778 C
atom_frac 0.2500246307351119 0.9045136615506311 0.8089170598229388 C
atom_frac 0.2500240256464892 0.9045137309005684 0.0955903982178157 C
atom_frac 0.2499470076867709 0.1910329977271346 0.0955178309574691 C
atom_frac 0.7500315572515320 0.0954715311081672 0.1910643892877033 C
atom_frac 0.7500105206530920 0.0955214902975074 0.9044321915518767 C
atom_frac 0.7499517867117403 0.8089679834573433 0.9045176844406555 C
atom_frac 0.2500500592298351 0.9008877714817419 0.6647170786941956 C
atom_frac 0.2500531466906395 0.7639057738328960 0.0991797354923846 C
atom_frac 0.2498957372834809 0.3352986368729065 0.2361452282229379 C
atom_frac 0.7500802340144619 0.0990983981351620 0.3352728634088251 C
atom_frac 0.7500246824705956 0.2361173325792621 0.9008348399158096 C
atom_frac 0.7499000966767470 0.6647117977028574 0.7638867568724094 C
atom_frac 0.7500202454940920 0.0991296842601557 0.7638604975009359 C
atom_frac 0.7500791249664899 0.2360969829350524 0.3352898025067931 C
atom_frac 0.7498997398084059 0.6647148133880807 0.9008751983672736 C
atom_frac 0.2500516811875714 0.9008967667555227 0.2361649406367903 C
atom_frac 0.2500518242766603 0.7638987077831983 0.6647000914406432 C
atom_frac 0.2498967499095245 0.3352876503074071 0.0991529171929670 C
atom_frac 0.2500415613396711 0.9511759522454289 0.7597507993444952 C
atom_frac 0.2500300690488829 0.8086744964757175 0.0489067108345367 C
atom_frac 0.2499240341471990 0.2402703394987925 0.1913926322928461 C
atom_frac 0.7500572533274976 0.0488126524293335 0.2402449958950186 C
atom_frac 0.7500103793548972 0.1913544383848987 0.9511150606247654 C
atom_frac 0.7499321333034531 0.7597442151453394 0.8086482551960329 C
atom_frac 0.7500204292742582 0.0488454827298241 0.8086129467599293 C
atom_frac 0.7500477330285309 0.1913290491106849 0.2402514601729351 C
atom_frac 0.7499263569321357 0.7597408694395755 0.9511575685746011 C
atom_frac 0.2500403486231947 0.9511827198903405 0.1914190274775859 C
atom_frac 0.2500314077963850 0.8086702605944186 0.7597454713323658 C
atom_frac 0.2499252198891214 0.2402618203978122 0.0488762393332962 C
atom_frac 0.2499949563441888 0.9551601055857122 0.9102791423872392 C
atom_frac 0.2499951810884582 0.9551648789869633 0.0448725097353986 C
atom_frac 0.2500048713478832 0.0897995388478137 0.0448994914318988 C
atom_frac 0.7499910601267674 0.0448514712996939 0.0897457779346240 C
atom_frac 0.7499960817808926 0.0448415284460355 0.9551492917478371 C
atom_frac 0.7500054098813040 0.9102144306399114 0.9551230363495264 C
atom_frac 0.2500797929434312 0.8090677163116028 0.6180792809518961 N
atom_frac 0.2500813696732608 0.8090771325328848 0.1909710552767623 N
atom_frac 0.2498417159953732 0.3819710689585777 0.1909881012372878 N
atom_frac 0.7501213266732664 0.1909302940763666 0.3819224991340064 N
atom_frac 0.7500364630141265 0.1909367703856689 0.8090479855575765 N
atom_frac 0.7498459109821453 0.6180376133678468 0.8090373504712575 N
atom_frac 0.2500175078251559 0.0469236275353780 0.9530064274190054 N
atom_frac 0.2499585020082336 0.9059935442526387 0.9529990383859189 N
atom_frac 0.2500181899827254 0.0469263884289148 0.0939308277817830 N
atom_frac 0.7500065461005717 0.9530743879263071 0.0469775924668739 N
atom_frac 0.7499586564263508 0.0940070217967772 0.0469848010381995 N
atom_frac 0.7500275053415992 0.9530745872468034 0.9060561515103700 N
atom_frac 0.3447571929377276 0.8256387355054433 0.4799906291982693 O
atom_frac 0.3442549985426949 0.6540072769602505 0.1738198165369410 O
atom_frac 0.3451754684860688 0.5199773355625369 0.3455162675442125 O
atom_frac 0.8445926486472716 0.1742034426296826 0.5199600467387810 O
atom_frac 0.8443459217485056 0.3459137267111745 0.8260757403269496 O
atom_frac 0.8452557884896238 0.4799950132046291 0.6545303662881281 O
atom_frac 0.6554607032134925 0.1740649095154724 0.6541679191167519 O
atom_frac 0.6547431250635328 0.3454186379675550 0.5200237547776114 O
atom_frac 0.6555967285049675 0.4801170444217748 0.8260067227517638 O
atom_frac 0.1552926481938997 0.8258222303201423 0.3457419969588217 O
atom_frac 0.1547891256447401 0.6545737341246254 0.4799360596579590 O
atom_frac 0.1557153681959420 0.5198261506154580 0.1738471397406796 O
atom_frac 0.6551219289120453 0.1742800524474860 0.5199435618473487 O
atom_frac 0.6548916069937576 0.3454538077846439 0.8253881184287695 O
atom_frac 0.6557732835169788 0.4801923434127320 0.6539811954094006 O
atom_frac 0.1552910629112745 0.8258272858055593 0.4800765085394260 O
atom_frac 0.1547849190037596 0.6545738299840523 0.1746240420381824 O
atom_frac 0.1557053856770239 0.5198327098984877 0.3459565655844158 O
atom_frac 0.3447541877941092 0.8256428593114296 0.3456564112940298 O
atom_frac 0.3442532701426089 0.6540198740978840 0.4801881871980100 O
atom_frac 0.3451900086490838 0.5199695538616995 0.1744581650941371 O
atom_frac 0.8449078164752777 0.1744863394779871 0.6544370447769481 O
atom_frac 0.8442033738518049 0.3460120987242022 0.5197834783806528 O
atom_frac 0.8450845119216768 0.4800294837196477 0.8256055915697260 O
atom_frac 0.2500064233804551 0.6665272570338560 0.3332660729566895 O
atom_frac 0.7500058275207308 0.3334447215703096 0.6666563716437963 O
