#=======================================================
# FHI-aims file: ./geometry.in
# Created using the Atomic Simulation Environment (ASE)
# Fri Jan 14 15:06:22 2022
#=======================================================
lattice_vector 10.0181108000000005 0.0000000000000000 0.4946340000000000 
lattice_vector 2.7138082490000000 10.2282737650000009 4.5925370000000001 
lattice_vector 0.2661445910000000 -0.2067795770000000 13.6663897070000004 
atom_frac 0.2340786129447068 0.5279936840468267 0.5014225685444487 Ce
atom_frac 0.7640524707720788 0.4715842246700744 0.4993846814029297 Ce
atom_frac 0.9479575224909097 0.7175858752030351 0.4204708353464852 H
atom_frac 0.0246634248122959 0.7784681962250771 0.4795726433651666 H
atom_frac 0.4173265443912229 0.2793420295400679 0.5107213862157494 H
atom_frac 0.4982077216462316 0.3816196292018149 0.4364069357484226 H
atom_frac 0.7062319388452991 0.1668647215300751 0.8401122395667429 H
atom_frac 0.2923000317931539 0.4131341710801807 0.7906941577912932 H
atom_frac 0.2593503776440542 0.3035953724528611 0.9858158440619604 H
atom_frac 0.5398401361131845 0.9938166917571039 0.1821707736554998 H
atom_frac 0.9591286771820793 0.7594038784627486 0.2434997104174883 H
atom_frac 0.0069213375068459 0.8848198576142962 0.0557585838727377 H
atom_frac 0.9009225842510701 0.4540675978332516 0.1643668052112305 H
atom_frac 0.2423631361976319 0.5832605873540330 0.2266131136915135 H
atom_frac 0.3109705338742970 0.6204277779269133 0.0393422027702854 H
atom_frac 0.2176347014801935 0.6511694640909695 0.7018079262767857 H
atom_frac 0.3697085279491432 0.8953217653858588 0.5094126105580515 H
atom_frac 0.4871916581901274 0.8714930249365481 0.6122424911382468 H
atom_frac 0.3301029135897765 0.9937672175456456 0.5876458473418538 H
atom_frac 0.2133934337634004 0.8914465947654833 0.7677248422767633 H
atom_frac 0.3869773080973290 0.7993613434654208 0.8043185914946990 H
atom_frac 0.2516346182643403 0.7178389902328135 0.8219559869413758 H
atom_frac 0.0519323755338164 0.2819607946379961 0.5799034909253679 H
atom_frac 0.9733481333585772 0.2201882342288570 0.5228056904512215 H
atom_frac 0.5842964216012448 0.7210036895067730 0.4897636571254084 H
atom_frac 0.5022284938646068 0.6194550710415143 0.5634794955119419 H
atom_frac 0.2938489237421963 0.8340283421693826 0.1601232189267421 H
atom_frac 0.7065910185780953 0.5854581247092128 0.2098175172752619 H
atom_frac 0.7396601772698758 0.6940243972874001 0.0145156261956743 H
atom_frac 0.4607227153602125 0.0058295534775255 0.8181962230042432 H
atom_frac 0.0415148957775457 0.2404669520636489 0.7562730295272146 H
atom_frac 0.9932011480073014 0.1150641427299846 0.9438434646634520 H
atom_frac 0.0988898021919269 0.5461194741189885 0.8351380353528626 H
atom_frac 0.7566666126759858 0.4177910757539182 0.7729075651651839 H
atom_frac 0.6884810043339301 0.3803552813963051 0.9601912769414866 H
atom_frac 0.7843734303105093 0.3482669583919531 0.2976589595052773 H
atom_frac 0.6312968452492098 0.1050802447048866 0.4903748794049180 H
atom_frac 0.5125326465896762 0.1303378448855099 0.3879065843581558 H
atom_frac 0.6687985538937299 0.0071855402904006 0.4116251443907900 H
atom_frac 0.7859724830849190 0.1087003099623374 0.2318242900512004 H
atom_frac 0.6124784325879276 0.2011651192777890 0.1955314568714499 H
atom_frac 0.7482659933868590 0.2823053393281896 0.1773690443806970 H
atom_frac 0.5283347638753284 0.3691888672287291 0.6857776143225892 C
atom_frac 0.5767243371670716 0.1412807217505545 0.9765853219704043 C
atom_frac 0.6058438333837374 0.2000105028217192 0.8691485945726143 C
atom_frac 0.5032598966679842 0.3003089675200458 0.8008640712109881 C
atom_frac 0.3754187524937933 0.3376521675843307 0.8424371977421857 C
atom_frac 0.3571210615358851 0.2752728064410945 0.9507013564466720 C
atom_frac 0.7081089185220010 0.7950224663637258 0.3397697021775059 C
atom_frac 0.6804805255660114 0.0326676532894155 0.0527793956375291 C
atom_frac 0.6444423837829164 0.9668246353792185 0.1570128630497224 C
atom_frac 0.7445407336216476 0.8669520241418525 0.2276464858217722 C
atom_frac 0.8773104800899745 0.8355277456043312 0.1911529217141137 C
atom_frac 0.9035385061736461 0.9056520551606936 0.0858748058007350 C
atom_frac 0.0161524267402697 0.4937864847780631 0.3203573037922425 C
atom_frac 0.0381892859231883 0.5133727897906368 0.0372736882059641 C
atom_frac 0.9928499800094244 0.4903588626715774 0.1405588062447052 C
atom_frac 0.0657110167002628 0.5149786606878237 0.2106239178933862 C
atom_frac 0.1832204119614076 0.5619777980397772 0.1745954253632576 C
atom_frac 0.2203665110867448 0.5827772520629892 0.0699550619288871 C
atom_frac 0.2669791572385734 0.7176429090661571 0.6375781465094192 C
atom_frac 0.3777554780846514 0.8966032080115482 0.5884191847406796 C
atom_frac 0.2892057803763918 0.8024690958554929 0.7705480525381603 C
atom_frac 0.4708464806709856 0.6312076414888210 0.3146082444478679 C
atom_frac 0.4231867884475378 0.8583515097114824 0.0236204561444567 C
atom_frac 0.3940155994940184 0.8002085298227541 0.1311150380934549 C
atom_frac 0.4962123275088572 0.6995699846564278 0.1994071244415849 C
atom_frac 0.6237929335921565 0.6612803772915256 0.1579785336352941 C
atom_frac 0.6421966994232946 0.7231661953405818 0.0496268716952527 C
atom_frac 0.2931012464791963 0.2046488692216144 0.6604359196282488 C
atom_frac 0.3196763761052139 0.9670561103161788 0.9473113605890549 C
atom_frac 0.3560185033317821 0.0328140529005694 0.8431737743915593 C
atom_frac 0.2561102681249778 0.1327270791359538 0.7724113945320640 C
atom_frac 0.1232261996289168 0.1642671374766493 0.8086835998512713 C
atom_frac 0.0966821391370729 0.0941729274914778 0.9139030380854578 C
atom_frac 0.9835635308592713 0.5062569753930717 0.6793946568580865 C
atom_frac 0.9615695891249700 0.4870180859030810 0.9622048463858948 C
atom_frac 0.0068723471179126 0.5099765688573042 0.8589821228230151 C
atom_frac 0.9338309101197526 0.4856215245920480 0.7887621305279425 C
atom_frac 0.8161068260359770 0.4387933459699553 0.8249289959670350 C
atom_frac 0.7791496748250069 0.4179001484609302 0.9295749980789196 C
atom_frac 0.7347033474918520 0.2821822093636754 0.3619162495153249 C
atom_frac 0.6222340915058026 0.1043165381482822 0.4112984059239224 C
atom_frac 0.7105409531753252 0.1978713643691421 0.2289998156907772 C
atom_frac 0.4545549435470875 0.1796075821067689 0.0170496531083373 N
atom_frac 0.8084784573101444 0.0023495259875261 0.0176109994575526 N
atom_frac 0.1508694729867841 0.5599265979085571 0.0018015885283020 N
atom_frac 0.3096531679207501 0.8022544500248399 0.6639830975357768 N
atom_frac 0.5450715014373202 0.8190995219620092 0.9832409677870189 N
atom_frac 0.1915843342852170 0.9974379020890041 0.9822920092036470 N
atom_frac 0.8487508768197429 0.4406156859996457 0.9978154736123700 N
atom_frac 0.6907279757492972 0.1982261333494222 0.3355803328453321 N
atom_frac 0.4248084866826076 0.4485763025462646 0.6257930730491879 O
atom_frac 0.6508506059754851 0.3499412725887865 0.6537160955242528 O
atom_frac 0.7995972503025754 0.6919859029211608 0.3969988612479725 O
atom_frac 0.5930369031747633 0.8360167670926300 0.3729979869029166 O
atom_frac 0.0889265957099425 0.5105343072260382 0.3843448269195945 O
atom_frac 0.9024876230378638 0.4615239725970993 0.3447803785453020 O
atom_frac 0.2790992279507877 0.7113068965136263 0.5473058322094104 O
atom_frac 0.0386307613335717 0.7335384589981543 0.4311943040163868 O
atom_frac 0.4070822561204185 0.3632136528726022 0.4461208312009930 O
atom_frac 0.5746813526713481 0.5521993033660451 0.3746291040637858 O
atom_frac 0.3485661057619113 0.6502118142976984 0.3465257203530215 O
atom_frac 0.2015342650790047 0.3074441572889697 0.6028787272415741 O
atom_frac 0.4085535539754375 0.1640066635660560 0.6276009271355749 O
atom_frac 0.9117081201175880 0.4885919227736366 0.6153506421792728 O
atom_frac 0.0973690809346550 0.5388439346744888 0.6548194092708358 O
atom_frac 0.7235148681014465 0.2883358758420229 0.4523090516973483 O
atom_frac 0.9608414282657949 0.2662399088734873 0.5702916933944167 O
atom_frac 0.5937785994754209 0.6370617789720611 0.5542727294782283 O
