#=======================================================
# FHI-aims file: ./geometry.in
# Created using the Atomic Simulation Environment (ASE)
# Wed Feb  9 14:46:29 2022
#=======================================================
lattice_vector 6.7446459100000000 0.1540580900000000 -3.2291536399999998 
lattice_vector -0.8531423100000000 5.0447709200000004 -1.5414356800000000 
lattice_vector -0.1071207100000000 0.0662867100000000 9.3793528700000000 
atom_frac 0.7502225999999999 0.4435945100000001 1.0003686599999999 Fe
atom_frac 0.2497776700000000 0.5564059300000000 -0.0003690400000000 Fe
atom_frac 0.2296516500000000 0.1981684800000001 0.4850593300000000 H
atom_frac 0.2684609100000000 0.7086839400000000 0.5106135199999999 H
atom_frac 0.7315381800000000 0.2913167600000001 0.4893863099999999 H
atom_frac 0.7703494300000000 0.8018296200000000 0.5149418700000000 H
atom_frac 0.8454018099999999 0.9232655300000000 0.2972322999999999 H
atom_frac 0.4386870300000000 0.9344281200000001 0.3236478600000000 H
atom_frac 0.0599278400000000 0.6071336600000001 0.6732890600000000 H
atom_frac 0.3464038100000000 0.3768092500000000 0.2994276900000000 H
atom_frac 0.1545991700000000 0.0767337400000000 0.7027684899999999 H
atom_frac 0.5613133400000000 0.0655712800000000 0.6763519299999999 H
atom_frac 0.9400724799999999 0.3928669600000000 0.3267118600000000 H
atom_frac 0.6535951599999998 0.6231894800000000 0.7005708099999999 H
atom_frac 0.1724027900000000 0.0302627400000000 0.3711273100000000 C
atom_frac 0.3259955600000000 0.6551910000000000 0.6253998199999999 C
atom_frac 0.6740038699999998 0.3448093600000000 0.3745998799999999 C
atom_frac 0.8275978600000000 0.9697366999999999 0.6288730800000000 C
atom_frac 0.9787684199999999 0.8924097500000000 0.2791332799999999 C
atom_frac 0.2805894800000001 0.8964360300000003 0.2923089200000000 C
atom_frac 0.2181740400000000 0.6010017700000000 0.7049816699999999 C
atom_frac 0.4798379900000000 0.3893262000000001 0.2813947500000000 C
atom_frac 0.0212321000000000 0.1075900100000000 0.7208668100000000 C
atom_frac 0.7194108499999999 0.1035638100000000 0.7076908499999999 C
atom_frac 0.7818260299999998 0.3989990600000000 0.2950185399999999 C
atom_frac 0.5201614100000000 0.6106734000000000 0.7186043600000001 C
atom_frac 0.9691829699999999 0.6901885000000001 0.1499010500000000 N
atom_frac 0.1569774600000000 0.6957126700000000 0.1551177800000000 N
atom_frac 0.3423869300000000 0.5389360600000001 0.8436042399999999 N
atom_frac 0.4696794200000000 0.4608745300000001 0.1508051000000000 N
atom_frac 0.0308173400000000 0.3098121000000000 0.8500987200000000 N
atom_frac 0.8430227099999998 0.3042881600000000 0.8448817599999999 N
atom_frac 0.6576135800000000 0.4610643600000001 0.1563957099999999 N
atom_frac 0.5303203399999999 0.5391250999999999 0.8491941100000000 N
