#=======================================================
# FHI-aims file: ./geometry.in
# Created using the Atomic Simulation Environment (ASE)
# Fri Jan 14 15:06:22 2022
#=======================================================
lattice_vector -5.9226264750000004 -0.0076739080000000 -0.2362103050000000 
lattice_vector -0.6955569880000000 -7.5549261190000001 -3.3411886790000001 
lattice_vector -0.6824240120000000 -7.5283559169999998 6.8755483890000004 
atom_frac 0.9998541460930427 0.6598176305999597 0.6804956907662500 Mn
atom_frac 0.0001463723606037 0.3401817689047064 0.3195041217717431 Mn
atom_frac 0.7684570332568724 0.7177051041513279 0.3637492600673369 V
atom_frac 0.2314502676627014 0.9183662954683314 0.3637187706964300 V
atom_frac 0.2315433287364144 0.2822961673303298 0.6362500023575566 V
atom_frac 0.7685500943305782 0.0816349760133335 0.6362804917284636 V
atom_frac 0.5677397377097009 0.8225817334512159 0.9999459480154089 H
atom_frac 0.4322590920328864 0.1774177061595097 0.0000538259963392 H
atom_frac 0.4052493140920602 0.8401251400104072 0.7677701286015620 H
atom_frac 0.5947606578867450 0.3920141028238787 0.7678168169408722 H
atom_frac 0.5947476722475357 0.1598752351745318 0.2322300367243102 H
atom_frac 0.4052400134904062 0.6079853777214624 0.2321815858032893 H
atom_frac 0.3412239035566600 0.7558911732641816 0.8721159817000200 C
atom_frac 0.6587938019473186 0.3719120284759327 0.8721474717000676 C
atom_frac 0.6587763072815561 0.2441090406679862 0.1278856704721818 C
atom_frac 0.3412067182747620 0.6280863945199044 0.1278533207913953 C
atom_frac 0.0938238587783786 0.5522940686993392 0.9999858139483495 C
atom_frac 0.9061731275612174 0.4477063064855997 0.0000143513775299 C
atom_frac 0.4306309845796362 0.7446345443082479 0.9999615443976282 C
atom_frac 0.5693678451629579 0.2553648953024775 0.0000382296141197 C
atom_frac 0.1725637846975018 0.6589995190857963 0.8727381057271517 N
atom_frac 0.8275356352666063 0.4681215024605833 0.8727863393155815 N
atom_frac 0.8274331998736669 0.3410018326079793 0.1272610796452512 N
atom_frac 0.1724633491679128 0.5318770416819802 0.1272130048557969 N
atom_frac 0.7927434343660167 0.6270353683158802 0.5427679991807467 O
atom_frac 0.2072091960193702 0.8299664951828093 0.5427246517549946 O
atom_frac 0.2072587710302544 0.3729649675915636 0.4572308719300224 O
atom_frac 0.7927911677423438 0.1700337997900191 0.4572755906233683 O
atom_frac 0.9997770890875586 0.8536905100075957 0.2928433638506221 O
atom_frac 0.0002215841946693 0.1463108015801211 0.7071558600480260 O
atom_frac 0.7860008743374036 0.5581038719719302 0.3016707508472437 O
atom_frac 0.2140020880930180 0.1401069149023044 0.3017232981356416 O
atom_frac 0.2139994876558831 0.4418973995097347 0.6983285115776499 O
atom_frac 0.7859982756687030 0.8598933800705238 0.6982769442427212 O
atom_frac 0.4998998427066254 0.8465235579279309 0.3065902969926385 O
atom_frac 0.5001005210550886 0.1534767370449046 0.6934099453857244 O
