#=======================================================
# FHI-aims file: ./geometry.in
# Created using the Atomic Simulation Environment (ASE)
# Wed Feb  9 14:46:33 2022
#=======================================================
lattice_vector -4.1396535999999999 10.4007656599999994 1.0412195399999999 
lattice_vector 10.3530559499999999 -1.7545014699999999 -4.0109155799999998 
lattice_vector -2.6608982900000000 -8.7492262800000002 -10.4725090600000001 
atom_frac 0.2703043800000001 0.8352219800000003 0.6812161200000001 Ag
atom_frac 0.3460386800000000 0.4109119900000001 0.1813050800000000 Ag
atom_frac 0.8811213100000000 0.0683096400000001 0.4655744400000000 H
atom_frac 0.5800121300000000 0.9967137200000001 0.3731405200000000 H
atom_frac 0.5560013600000000 0.6944677700000002 0.6130251300000000 H
atom_frac 0.8566988300000002 0.7704118800000003 0.7099096600000001 H
atom_frac 0.0969090900000000 0.7107165400000001 0.4184734500000001 H
atom_frac 0.9330180100000000 0.2703017200000001 0.4257457400000000 H
atom_frac 0.3760152600000001 0.5480538200000001 0.4266500800000000 H
atom_frac 0.5523716500000000 0.3500870900000000 0.3604274000000000 H
atom_frac 0.4091263900000000 0.1673332800000000 0.4477289900000000 H
atom_frac 0.8760842800000000 0.1631946300000000 0.7130151800000000 H
atom_frac 1.0144537400000000 0.3428810200000000 0.6218738400000000 H
atom_frac 0.8654308800000000 0.1986571600000000 0.2216403100000000 H
atom_frac 0.6296908000000000 0.9564569400000000 0.1292859300000000 H
atom_frac 0.9441731899999999 0.7970561000000000 0.4090997099999999 H
atom_frac 0.1902483800000001 0.0464272300000001 0.4974247100000000 H
atom_frac 0.8971317199999999 0.5844359799999999 0.9655664599999999 H
atom_frac 0.8763757499999999 0.7931927700000001 0.8731154900000000 H
atom_frac 0.4183787199999999 0.0569223400000000 0.1128804200000000 H
atom_frac 0.4392331900000001 0.8530392800000001 0.2098341700000000 H
atom_frac 0.2077629400000001 0.3216838300000002 0.9183310900000001 H
atom_frac 0.6552604200000000 0.4927330300000000 0.9254974199999999 H
atom_frac 0.3784641500000000 0.0505981700000000 0.9265417500000001 H
atom_frac 0.5103849900000000 0.8083046700000001 0.8604778300000000 H
atom_frac 0.7804475700000000 0.0387902900000000 -0.0522428500000000 H
atom_frac 1.0496686200000001 0.8367820200000000 0.2128160900000000 H
atom_frac 0.7788523199999999 0.6073259500000000 0.1216595700000000 H
atom_frac 0.5230379600000001 0.3561041600000002 0.7214577700000001 H
atom_frac 0.6731761500000000 0.4996456000000001 0.6293051000000000 H
atom_frac 0.1122052900000001 0.4650019200000001 0.9095196300000001 H
atom_frac 0.9509100400000001 0.3071690000000001 0.9976550400000000 H
atom_frac 0.0554458999999999 0.9603735900000001 0.6473438399999999 C
atom_frac 0.8864238600000000 0.9222342000000000 0.5919756100000000 C
atom_frac 0.8084927000000000 0.9867749300000003 0.4973047700000000 C
atom_frac 0.6418180900000000 0.9455056600000000 0.4448601100000000 C
atom_frac 0.5462794200000000 0.8365127900000001 0.4824814900000000 C
atom_frac 0.6265208000000000 0.7752310300000000 0.5794235000000000 C
atom_frac 0.7941141700000000 0.8174428500000001 0.6341849300000000 C
atom_frac 0.3661280800000000 0.7915183400000000 0.4190835099999999 C
atom_frac 0.2512553100000000 0.6468110900000000 0.4240934300000000 C
atom_frac 0.1155802700000000 0.6230505300000001 0.4222835200000000 C
atom_frac 0.0053632100000000 0.4894891700000000 0.4287857900000000 C
atom_frac 0.0231947000000001 0.3759933800000001 0.4255869100000000 C
atom_frac 0.1552365900000000 0.3972379600000001 0.4233151600000000 C
atom_frac 0.2718086800000000 0.5334551000000000 0.4260425300000000 C
atom_frac 0.8678853000000000 0.4729671800000000 0.4311749000000000 C
atom_frac 0.7901690099999998 0.3556178100000000 0.4830207200000000 C
atom_frac 0.6204908200000000 0.3057068100000001 0.4362678700000001 C
atom_frac 0.5407423200000000 0.2044312100000000 0.4842217000000000 C
atom_frac 0.6342300200000001 0.1543532100000000 0.5853664600000000 C
atom_frac 0.8048058500000000 0.2032958400000000 0.6345638700000000 C
atom_frac 0.8805878899999999 0.3022722000000000 0.5820379400000001 C
atom_frac 0.5471854100000000 0.0526059000000000 0.6319489900000000 C
atom_frac 0.1869899700000000 0.2818587300000001 0.4306252000000000 C
atom_frac 0.0421198600000000 0.1386575500000000 0.3704521200000000 C
atom_frac 0.8833697200000000 0.1119762700000000 0.2656504800000001 C
atom_frac 0.7497068400000000 0.9754863400000000 0.2132134600000000 C
atom_frac 0.7709417799999998 0.8621560900000002 0.2676801500000000 C
atom_frac 0.9314457999999999 0.8876483800000000 0.3703174000000000 C
atom_frac 0.0650969900000000 1.0241127300000001 0.4180349600000000 C
atom_frac 0.6357681600000000 0.7222751700000000 0.2220689100000000 C
atom_frac 0.1867772700000000 0.5917756400000000 0.1473547700000000 C
atom_frac 0.1695355200000000 0.7054444100000001 0.0919371100000000 C
atom_frac 0.0103906600000000 0.6887791100000000 0.9972766600000000 C
atom_frac -0.0007415300000000 0.8030520300000001 0.9448057900000001 C
atom_frac 0.1458679899999998 0.9361912100000001 0.9823826799999998 C
atom_frac 0.3040271500000000 0.9528144800000000 0.0793088000000000 C
atom_frac 0.3165283899999999 0.8399474399999999 0.1341094300000000 C
atom_frac 0.1275213500000000 0.0530094899999999 0.9189961900000000 C
atom_frac 0.2771816300000001 0.1728582700000001 0.9239438800000001 C
atom_frac 0.2991711700000000 0.3067677500000001 0.9221129400000000 C
atom_frac 0.4391991000000000 0.4234743800000001 0.9285839900000001 C
atom_frac 0.5494385700000000 0.4024004200000000 0.9253641300000000 C
atom_frac 0.5259058400000001 0.2680488900000001 0.9231404000000001 C
atom_frac 0.3924460600000000 0.1542184100000001 0.9258961000000000 C
atom_frac 0.4581795199999998 0.5633823999999999 0.9310518499999999 C
atom_frac 0.6273598400000001 0.6929240800000001 -0.0170844800000000 C
atom_frac 0.6305612000000002 0.8159339000000001 0.9362511600000001 C
atom_frac 0.7797930899999999 0.9436039499999999 -0.0157976300000000 C
atom_frac 0.9309702099999999 0.9511542299999999 0.0852722100000000 C
atom_frac 0.9311664600000000 0.8296945700000001 0.1344056200000000 C
atom_frac 0.7796634700000000 0.7014182100000000 0.0818722100000000 C
atom_frac 0.0793147100000000 0.0847428100000000 0.1318267400000000 C
atom_frac 0.6486004800000000 0.2435538600000001 0.9305488700000001 C
atom_frac 0.7317569500000000 0.3282665200000001 0.8704579700000000 C
atom_frac 0.6537446000000000 0.3822177100000000 0.7655919400000000 C
atom_frac 0.7379448800000000 0.4635050000000001 0.7132596100000000 C
atom_frac 0.9057711600000000 0.4967814900000001 0.7678812600000001 C
atom_frac 0.9828014199999999 0.4389144300000000 0.8705901300000000 C
atom_frac 0.8939170499999999 0.3529133400000000 0.9182032500000000 C
atom_frac 0.0001491400000000 0.5864434000000001 0.7223761700000000 C
atom_frac 0.1959588300000000 0.9869348000000001 0.6983301600000000 N
atom_frac 0.4639550700000001 0.9680232000000001 0.6630001300000001 N
atom_frac 0.5268003699999999 0.6047048200000001 0.1870857000000000 N
atom_frac 0.2115265800000000 0.5023876500000000 0.1984521300000000 N
atom_frac 0.1950127600000000 0.1990141100000000 0.1631188700000000 N
atom_frac 0.0823247899999999 0.6602493900000000 0.6870428299999999 N
atom_frac 0.3100311400000000 0.8695128100000000 0.3599980000000000 O
atom_frac 0.8156743199999998 0.5564960799999999 0.3889604000000000 O
atom_frac 0.3350959400000000 0.3072628500000000 0.4894929400000000 O
atom_frac -0.0094833100000000 0.0501034300000001 0.8599844700000000 O
atom_frac 0.3325230000000000 0.5734424000000001 0.8889271700000000 O
atom_frac 0.6819943399999999 0.1542783700000000 0.9894728200000000 O
