#=======================================================
# FHI-aims file: ./geometry.in
# Created using the Atomic Simulation Environment (ASE)
# Fri Jan 14 15:06:22 2022
#=======================================================
lattice_vector 10.6048694579999996 0.0000000000000000 -0.0242820000000000 
lattice_vector -4.9309133699999999 9.7720700829999991 -0.7413400000000000 
lattice_vector 0.2115684000000000 0.7118721770000001 22.4037741490000002 
atom_frac 0.1994396687070505 0.5104998039321345 0.7261417924715518 Cu
atom_frac 0.8005661559517635 0.4894829739934465 0.2738526381552974 Cu
atom_frac 0.5000067444058374 0.5000146824726670 0.4999935267144268 Cu
atom_frac 0.9999915044500723 0.9999954156892982 0.0000066236687246 Cu
atom_frac 0.6611991147605567 0.3260679986146400 0.5209792961387550 H
atom_frac 0.2968522148361786 0.3142533437529593 0.6036677860342651 H
atom_frac 0.3411908449866489 0.0971781079099188 0.6417426242112683 H
atom_frac 0.6850237241830825 0.1338233458299811 0.5711824382874938 H
atom_frac 0.5576948488764443 0.0364062758384236 0.6238413796665725 H
atom_frac 0.5353249621153894 0.8971903404123366 0.5320099983342956 H
atom_frac 0.3802702935486906 0.9176125152736319 0.5427606306182896 H
atom_frac 0.3936482558472107 0.6220173805833866 0.8530359574582321 H
atom_frac 0.1344390037910017 0.2299092613531499 0.7754209297131780 H
atom_frac 0.2770473621217420 0.2027991576903574 0.8738260018784842 H
atom_frac 0.3956522045789015 0.4241447768808158 0.9673049983273360 H
atom_frac 0.5245260824913202 0.5690907157108499 0.9307930045550351 H
atom_frac 0.4964805590706050 0.2768855062054101 0.9259744230653055 H
atom_frac 0.6272986580491420 0.4206953069213739 0.9642826329693294 H
atom_frac 0.5874272058669945 0.3904352832901310 0.8277877234874254 H
atom_frac 0.7210870588634819 0.5324336949838084 0.8683730563437706 H
atom_frac 0.8219707613987595 0.3876832632211844 0.9063733667968210 H
atom_frac 0.6791544546007131 0.2374646127812454 0.8762797336707707 H
atom_frac 0.0185655799436262 0.5370755165268548 0.8367378749741121 H
atom_frac 0.8960203950986665 0.2775837906377844 0.6804054992344036 H
atom_frac 0.6702654622440462 0.1880224980861982 0.7602502092463582 H
atom_frac 0.4701221133624571 0.4580908874878987 0.7436499981156359 H
atom_frac 0.4004603972566017 0.7176424067584578 0.6296890384347195 H
atom_frac 0.6585688865217491 0.7158632478632683 0.6008581116889360 H
atom_frac 0.7242913882901263 0.5009628796278847 0.6325091018339110 H
atom_frac 0.6920890369483318 0.4694009021534669 0.7094693449901188 H
atom_frac 0.9397966416492879 0.6401081491144964 0.6935210029338138 H
atom_frac 0.8816966697644163 0.7436385927458958 0.6552462230358956 H
atom_frac 0.8324535501899106 0.6757062012698825 0.7881494231695430 H
atom_frac 0.7591638721600233 0.7681156566035485 0.7505279586457904 H
atom_frac 0.0738289160572948 0.8528335395789099 0.7705890184016939 H
atom_frac 0.0074978405309239 0.9436227936204985 0.7264252565728031 H
atom_frac 0.0675113727698786 0.8697580653962260 0.8807665897772523 H
atom_frac 0.8562795744579931 0.0529668957258025 0.7861857802155399 H
atom_frac 0.8631294958798322 0.1224767234003821 0.9081530312361539 H
atom_frac 0.0550860179439567 0.4098456543687803 0.4056058821010354 H
atom_frac 0.1967783110390044 0.4795126589712807 0.9494663686609215 H
atom_frac 0.3388061402781730 0.6739474641370008 0.4790019321026123 H
atom_frac 0.7031441558218037 0.6857530616745322 0.3963113474579388 H
atom_frac 0.6587951906994860 0.9028116897114841 0.3582256824004589 H
atom_frac 0.3149699275231939 0.8661791385443961 0.4287943307434858 H
atom_frac 0.4422817766677554 0.9635815132341389 0.3761264039299449 H
atom_frac 0.4646798736630799 0.1028315566327649 0.4679531418751779 H
atom_frac 0.6197260398238099 0.0823930810577664 0.4572015146326365 H
atom_frac 0.6063692741848641 0.3779907233899493 0.1469620020134244 H
atom_frac 0.8655644920942153 0.7700973362978516 0.2245836600041217 H
atom_frac 0.7229363563591705 0.7972098877955460 0.1261871281160722 H
atom_frac 0.6043460057828511 0.5758504943717853 0.0327005499313486 H
atom_frac 0.4754666579735484 0.4309153637857861 0.0692186980133016 H
atom_frac 0.5035397375449265 0.7231289975320223 0.0740340173002281 H
atom_frac 0.3727088549989332 0.5793262465568532 0.0357273658766672 H
atom_frac 0.4125920910209545 0.6095852483961294 0.1722222543192515 H
atom_frac 0.2789293613711408 0.4675867720538420 0.1316378089126076 H
atom_frac 0.1780601719737120 0.6123417726925026 0.0936309700728444 H
atom_frac 0.3208730083300325 0.7625591754788134 0.1237276826262530 H
atom_frac 0.9814658200534296 0.4629281460852255 0.1632648624528557 H
atom_frac 0.1039766051775502 0.7224168445299455 0.3195966543775555 H
atom_frac 0.3297375569673806 0.8120013894119538 0.2397558447813921 H
atom_frac 0.5299075206402719 0.5419129374512508 0.2563505110018554 H
atom_frac 0.5995070212549649 0.2822853944359451 0.3702874626671573 H
atom_frac 0.3414186528020410 0.2840999576037788 0.3991240462802281 H
atom_frac 0.2757470510622539 0.4990613465955676 0.3674782549504769 H
atom_frac 0.3079498980176397 0.5306040249313071 0.2905160346635968 H
atom_frac 0.0602302304043719 0.3599299808622831 0.3064721576285692 H
atom_frac 0.1183100935463628 0.2563909826531158 0.3447519889016705 H
atom_frac 0.1675306405343022 0.3242786849625077 0.2118441610667361 H
atom_frac 0.2408258573498259 0.2318792432051282 0.2494686410626628 H
atom_frac 0.9261568787965755 0.1471655890436807 0.2294197685144042 H
atom_frac 0.9924981218410452 0.0563903019186682 0.2735884670615860 H
atom_frac 0.9324538370575297 0.1302111354212627 0.1192456480518445 H
atom_frac 0.1437215424076258 0.9470431043783377 0.2138282929310122 H
atom_frac 0.1368738837523154 0.8775239914384442 0.0918620761738964 H
atom_frac 0.9449205744372691 0.5901507515394188 0.5943840904202774 H
atom_frac 0.8031939266092252 0.5204850912009533 0.0505753880976059 H
atom_frac 0.5693143112575142 0.2952403700473099 0.5490457770297540 C
atom_frac 0.3795428492123420 0.2845881423813951 0.5926551725004858 C
atom_frac 0.4003548228838126 0.1774470411882376 0.6116478372879612 C
atom_frac 0.5712679608874539 0.0819671796986796 0.5801476568716525 C
atom_frac 0.4927372864490351 0.9719433217502739 0.5311933172414669 C
atom_frac 0.3478880147006294 0.5127121831773920 0.8422447638132412 C
atom_frac 0.2124915414771138 0.3072728814991875 0.8049448846272044 C
atom_frac 0.2831735024087578 0.2925370601296109 0.8530426755795090 C
atom_frac 0.4630214786699725 0.4574511938567197 0.9279262421294663 C
atom_frac 0.5597812553880032 0.3882912650545478 0.9239728233826555 C
atom_frac 0.6529641410268568 0.4215708814563969 0.8688916654429022 C
atom_frac 0.7444472342648822 0.3467630699854283 0.8695198350281076 C
atom_frac 0.9575675688044072 0.4508231678422375 0.8054176400345130 C
atom_frac 0.8865660725392386 0.3171000834901818 0.7245201842026463 C
atom_frac 0.7755697602709902 0.2722997605958569 0.7634905161817328 C
atom_frac 0.4850542621559767 0.5305919391114600 0.7097740322669850 C
atom_frac 0.4558761661811063 0.6677067470216258 0.6501769392972747 C
atom_frac 0.5821057358093569 0.6679954911149578 0.6355512412401154 C
atom_frac 0.7172966951661267 0.5471283208465465 0.6760675860680579 C
atom_frac 0.8557575387178248 0.6728242595555115 0.6918857036338154 C
atom_frac 0.8491485190557811 0.7436439579859025 0.7510324789140059 C
atom_frac 0.9840443933983423 0.8753684718606536 0.7638842507102127 C
atom_frac 0.0148711048421718 0.9338420232356982 0.8729942292578560 C
atom_frac 0.9000649741327393 0.0264046897143757 0.8241669509598637 C
atom_frac 0.9042043627342479 0.0606372143612504 0.8840054604690124 C
atom_frac 0.2068749196404269 0.3962085470833472 0.4957664055718568 C
atom_frac 0.0904967986966057 0.4382504364512272 0.5004915666106697 C
atom_frac 0.0302061515732319 0.4490829526769105 0.4470745221450585 C
atom_frac 0.0590335256392437 0.4885757809088175 0.5543456267185648 C
atom_frac 0.1113638302507951 0.4702629534958618 0.6136880680474306 C
atom_frac 0.0601958996690257 0.2694658430498649 0.0141470576704847 C
atom_frac 0.0263194616221583 0.3880068999513355 0.0104644924028321 C
atom_frac 0.9127789354502766 0.3979172888362399 0.0396761766613380 C
atom_frac 0.1102210858919578 0.4893765537928375 0.9718992281382343 C
atom_frac 0.8196649729148788 0.3030860181060007 0.0866899871699403 C
atom_frac 0.4306872200773242 0.7047751578728167 0.4509345566254197 C
atom_frac 0.6204540673052393 0.7154193811796929 0.4073226595222297 C
atom_frac 0.5996342669586028 0.8225495454257372 0.3883256071684898 C
atom_frac 0.4287218336747713 0.9180368448448277 0.4198220172890998 C
atom_frac 0.5072626998927491 0.0280722883059497 0.4687718414426314 C
atom_frac 0.6521256238767421 0.4872957589144775 0.1577554178509004 C
atom_frac 0.7875143860840481 0.6927348341368784 0.1950584056596085 C
atom_frac 0.7168223253644612 0.7074673342097739 0.1469640646861521 C
atom_frac 0.5369771778277651 0.5425532002598602 0.0720805011946979 C
atom_frac 0.4402315219265419 0.6117232717127337 0.0760351635727829 C
atom_frac 0.3470565967000567 0.5784507034177793 0.1311179024219840 C
atom_frac 0.2555765239017731 0.6532587741515954 0.1304861738625149 C
atom_frac 0.0424568388114537 0.5491836552248088 0.1945838553330930 C
atom_frac 0.1134393570911314 0.6829065788836955 0.2754835170454514 C
atom_frac 0.2244408880142431 0.7277201725965269 0.2365136298533841 C
atom_frac 0.5149587566484540 0.4693920212992637 0.2902182135186849 C
atom_frac 0.5441034015225199 0.3322351506836441 0.3498027195455081 C
atom_frac 0.4178804005550776 0.3319626425811321 0.3644303010304101 C
atom_frac 0.2827302263651461 0.4528813871275759 0.3239224022981730 C
atom_frac 0.1442573894771471 0.3271983962168790 0.3081091637094033 C
atom_frac 0.1508439533701846 0.2563548953115956 0.2489660400015695 C
atom_frac 0.0159432683320802 0.1246326659049259 0.2361250510651019 C
atom_frac 0.9851059618769185 0.0661364292973730 0.1270174348543237 C
atom_frac 0.0999271574699280 0.9735940815955644 0.1758467408877920 C
atom_frac 0.0957891706691854 0.9393564525192133 0.1160080639925951 C
atom_frac 0.7931494086472882 0.6038120337834201 0.5042288496543322 C
atom_frac 0.9095125744803454 0.5617459043627591 0.4994992994773285 C
atom_frac 0.9698012878585587 0.5509133234141929 0.5529172324121348 C
atom_frac 0.9409653595917788 0.5114122640703798 0.4456467389068521 C
atom_frac 0.8886179844582855 0.5297046106764682 0.3863044940739968 C
atom_frac 0.9397840972212778 0.7305297846100203 0.9858816930163243 C
atom_frac 0.9736597734318692 0.6119897314931534 0.9895785739811702 C
atom_frac 0.0871936752821299 0.6020793106924245 0.9603673278402667 C
atom_frac 0.8897586092132529 0.5106251494968816 0.0281444529249129 C
atom_frac 0.1803037683070842 0.6968876857364705 0.9133447211598170 C
atom_frac 0.5211650547729859 0.1860334729271571 0.5838658655315784 N
atom_frac 0.4859513125639054 0.3566698447801855 0.5535225185732601 N
atom_frac 0.3964632549103015 0.5819951116746793 0.6965899170850776 N
atom_frac 0.5980622383913355 0.5798217125757431 0.6736765455362886 N
atom_frac 0.9717709146635799 0.9476962293529496 0.8180064457950421 N
atom_frac 0.9755527968067026 0.0020924595166036 0.9135942658957604 N
atom_frac 0.2535345818201549 0.4445813335489177 0.7987530196258349 N
atom_frac 0.3685508506969128 0.4230573696873563 0.8757242584092213 N
atom_frac 0.8226966827528700 0.3574155152164665 0.8143182937646004 N
atom_frac 0.9989885422488529 0.4281918620258620 0.7514538882069817 N
atom_frac 0.4788287268045011 0.8139732570802067 0.4161088123611593 N
atom_frac 0.5140514918590854 0.6433465092779045 0.4464605219187945 N
atom_frac 0.6035301611110951 0.4179626646344872 0.3033965311364994 N
atom_frac 0.4019480715105813 0.4201624102363153 0.3263134709204040 N
atom_frac 0.0282099488112095 0.0522924315191915 0.1820055602257327 N
atom_frac 0.0244308134502020 0.9978920203711538 0.0864189438135625 N
atom_frac 0.7464820053037471 0.5554267704986842 0.2012449388263207 N
atom_frac 0.6314516833403302 0.5769512373294318 0.1242808431087923 N
atom_frac 0.1773196419212084 0.6426024082387868 0.1856853455673005 N
atom_frac 0.0010263922224709 0.5718067624392518 0.2485477719552520 N
atom_frac 0.1984044877618985 0.3002816264592312 0.4615953709385466 O
atom_frac 0.3178813991128068 0.4821217650738062 0.5261651392776230 O
atom_frac 0.1125482212082858 0.3596051736306194 0.6246810248241773 O
atom_frac 0.1465061334703820 0.5728788996734338 0.6518828215409728 O
atom_frac 0.9497455005555792 0.1511585574766343 0.0108839521244306 O
atom_frac 0.1855659784246271 0.2879569158753696 0.0159647160663354 O
atom_frac 0.8863008750622612 0.2806410324004602 0.1290908202150902 O
atom_frac 0.6892028908554978 0.2654433918969659 0.0827235186544399 O
atom_frac 0.8016452951805136 0.6997470868755045 0.5384006273327060 O
atom_frac 0.6821358660590987 0.5179120551412453 0.4738309927361897 O
atom_frac 0.8874225650169337 0.6403526044609791 0.3753053989294131 O
atom_frac 0.8534792360331735 0.4270781960800250 0.3481129688606259 O
atom_frac 0.0502354688260171 0.8488343165927930 0.9891264080121974 O
atom_frac 0.8144087770050065 0.7120355847307350 0.9840648181722359 O
atom_frac 0.1136628380614654 0.7193094839087308 0.8709390982101869 O
atom_frac 0.3107636192963383 0.7345233607001233 0.9173082791205759 O
