#=======================================================
# FHI-aims file: ./geometry.in
# Created using the Atomic Simulation Environment (ASE)
# Wed Feb  9 14:46:19 2022
#=======================================================
lattice_vector -6.7554079600000003 -0.1427124600000000 0.2345936800000000 
lattice_vector -0.1852020200000000 17.6158823899999994 -5.3863450100000003 
lattice_vector 0.0427515600000000 0.2887385900000000 -26.8398603599999994 
atom_frac 0.1782688800000000 0.4895153300000000 0.5085352600000000 Al
atom_frac 0.6798062900000000 0.4904925000000001 0.5059666400000000 Al
atom_frac 0.5765628899999999 0.9899368499999999 0.0065189000000000 Al
atom_frac 0.0725577100000000 0.9943782500000000 1.0071889700000001 Al
atom_frac 0.7356813500000000 0.7382544100000000 0.6458060200000001 H
atom_frac 0.6335073199999999 0.4255316100000000 0.2766034200000000 H
atom_frac 0.6324110200000000 0.2282722100000000 0.1474774400000000 H
atom_frac 0.6435408200000000 0.1451309400000000 0.0888934500000000 H
atom_frac 0.6237186700000000 0.7731036100000001 1.0193315599999999 H
atom_frac 0.7221284600000000 0.7023190000000000 0.9937563600000000 H
atom_frac 0.4463527400000000 0.6503121200000002 0.0562628300000000 H
atom_frac 0.2811486400000000 0.7185925699999999 1.0150472100000001 H
atom_frac 0.3809275400000000 0.6452474900000000 0.9924622700000000 H
atom_frac 0.0870279500000000 0.1933675000000000 0.3711124700000000 H
atom_frac 0.1878993600000000 0.2218210900000000 0.3074712200000000 H
atom_frac 0.8448564800000000 0.2426628100000000 0.2667042000000000 H
atom_frac 0.8748767100000000 0.1463214400000000 0.3076901100000000 H
atom_frac 0.7421387100000000 0.2127804500000000 0.3300633800000000 H
atom_frac 0.0542736700000000 0.3784738400000000 0.4390094500000001 H
atom_frac 0.9550340700000001 0.3247799000000001 0.4008336000000000 H
atom_frac 0.0953663900000000 0.2208539700000000 0.9780192700000000 H
atom_frac 0.0090824700000000 0.2917757000000000 0.0052022200000000 H
atom_frac 0.7788548300000000 0.2822953999999999 0.9351827200000000 H
atom_frac 0.7479082700000000 0.1827083600000000 0.9622793800000000 H
atom_frac 0.6558765700000001 0.2456549400000000 -0.0045856800000000 H
atom_frac 0.9581533400000000 0.2863464299999999 0.1464247600000000 H
atom_frac 0.8435687200000000 0.2407798400000000 0.1020732000000000 H
atom_frac 0.6053408000000000 0.7845462200000000 0.7979464199999999 H
atom_frac 0.4356297300000000 0.8005486500000000 0.8374452800000000 H
atom_frac 0.2486196700000000 0.7259734400000000 0.8594194599999999 H
atom_frac 0.3523760900000000 0.7536362300000000 0.9132827200000000 H
atom_frac 0.1991001400000000 0.8870174400000002 0.9694070800000000 H
atom_frac 0.3522730200000000 0.8493318299999999 0.9326143800000001 H
atom_frac 0.6231150400000000 0.6252490499999999 0.5590090400000000 H
atom_frac 0.5513184100000000 0.6998838900000000 0.5820047400000000 H
atom_frac 0.2515959500000000 0.4960758900000000 0.6303845099999998 H
atom_frac 0.3323585300000000 0.5072102700000001 0.6917963600000000 H
atom_frac 0.4455164700000000 0.6872088900000000 0.7120637700000000 H
atom_frac 0.5126802100000000 0.6113711899999998 0.6869555500000000 H
atom_frac 0.7356003500000000 0.6069952300000001 0.7619712100000000 H
atom_frac 0.5319400700000000 0.6101341700000000 0.8021990100000002 H
atom_frac 0.5703621300000000 0.5278348100000001 0.7816973300000001 H
atom_frac 0.7734223300000000 0.5888978499999999 0.3214025800000000 H
atom_frac 0.6426663099999999 0.5442324300000000 0.2794677600000000 H
atom_frac -0.0580513400000000 0.4615234400000000 0.2825596200000000 H
atom_frac 1.0070143199999999 0.5601409400000000 0.2620612900000000 H
atom_frac 0.0635751800000000 0.5034686000000000 0.3274032300000000 H
atom_frac 0.4256057100000001 0.5869439000000000 0.4802803100000000 H
atom_frac 0.9252192900000000 0.3924310800000000 0.5341026100000000 H
atom_frac 0.3263971800000000 0.9081522499999999 1.0583641200000000 H
atom_frac 0.8250664900000000 0.0840703300000000 0.0078856800000000 H
atom_frac 0.4081827800000000 0.4353133599999999 0.4372270500000000 C
atom_frac 0.4427503200000000 0.3811023200000000 0.5825655400000000 C
atom_frac 0.9482094100000000 0.5526293899999999 0.5743812600000001 C
atom_frac 0.9220627699999999 0.6022805100000002 0.4342949700000000 C
atom_frac 0.9260512700000000 0.6649890600000000 0.3870270300000000 C
atom_frac 0.9171575500000000 0.7125535500000000 0.3436467800000000 C
atom_frac 0.9020885300000001 0.7609701000000001 0.2952396200000000 C
atom_frac 0.8831181600000000 0.8020743899999999 0.2495472000000000 C
atom_frac 0.8642930700000000 0.8443599800000000 0.1994832700000000 C
atom_frac 0.8482271200000000 0.8817119500000000 0.1531741300000000 C
atom_frac 0.6985347300000000 0.8132140900000001 0.9115055999999999 C
atom_frac 0.7197360400000000 0.7996233000000000 0.8640042600000000 C
atom_frac 0.9182195900000000 0.7937442299999999 0.8482202400000000 C
atom_frac 0.0706901400000000 0.7913165899999999 0.8860392100000000 C
atom_frac 0.0493217400000000 0.8350769900000000 0.9223006700000002 C
atom_frac 0.8547313000000000 0.8459373700000000 0.9352228400000000 C
atom_frac 0.9962626400000000 0.7206467400000001 0.7232225200000000 C
atom_frac 0.9568670100000000 0.7754937500000001 0.8009818500000001 C
atom_frac 0.8368524800000000 0.6918139000000000 0.6479717200000000 C
atom_frac 0.8124790100000000 0.6493626800000001 0.6129028599999999 C
atom_frac 0.9547814900000000 0.5923919500000000 0.6138939200000000 C
atom_frac 0.1067705500000000 0.5756427500000001 0.6539712100000000 C
atom_frac 0.1196676100000000 0.6165633800000001 0.6909422900000000 C
atom_frac 0.9891093900000000 0.6763687900000001 0.6864368900000000 C
atom_frac 0.5382057400000000 0.4330246700000000 0.3510236299999999 C
atom_frac 0.5217638700000000 0.4100883600000000 0.3063974500000000 C
atom_frac 0.3573434300000000 0.3669978400000001 0.2980163100000000 C
atom_frac 0.2123293600000000 0.3445871000000000 0.3354491800000000 C
atom_frac 0.2269463400000000 0.3668119399999999 0.3816004800000000 C
atom_frac 0.3942788500000000 0.4099373200000000 0.3900772000000001 C
atom_frac 0.3247137200000000 0.2928248500000000 0.1717978100000000 C
atom_frac 0.3415065700000000 0.3499546300000000 0.2483292400000000 C
atom_frac 0.4981356500000000 0.2158231500000000 0.1273246800000000 C
atom_frac 0.5045646700000000 0.1702690000000000 0.0952368600000000 C
atom_frac 0.3302196500000000 0.1536265700000000 0.0702064400000000 C
atom_frac 0.1510656800000000 0.1841992700000000 0.0786542300000000 C
atom_frac 0.1404207000000000 0.2260010200000000 0.1152344600000000 C
atom_frac 0.3193776000000000 0.2448175500000000 0.1380608000000000 C
atom_frac 0.4365056500000001 0.3231482299999999 0.6322041500000000 C
atom_frac 0.4141516600000000 0.2780594700000000 0.6758693000000001 C
atom_frac 0.3872726600000000 0.2301547700000000 0.7237757699999999 C
atom_frac 0.3593419600000000 0.1877042500000000 0.7683259800000001 C
atom_frac 0.3330824500000000 0.1431116500000000 0.8172573300000000 C
atom_frac 0.3122409300000000 0.1034256300000000 0.8625510700000000 C
atom_frac 0.3064023800000000 0.0597186800000000 0.9168815000000000 C
atom_frac 0.3406728200000000 0.0980964800000000 0.0400962600000000 C
atom_frac 0.8432520100000001 0.9233797700000002 0.0984339600000000 C
atom_frac 0.8166115900000001 0.8918190200000000 0.9690982700000000 C
atom_frac 0.5887936300000000 0.7354514100000000 0.9950444400000001 C
atom_frac 0.4140208800000000 0.6845635099999999 1.0155278800000000 C
atom_frac 0.0592081700000000 0.2286374000000000 0.3300847499999999 C
atom_frac 0.8693519500000000 0.2061897600000000 0.3072518300000000 C
atom_frac -0.0245480700000000 0.2352519000000000 0.0002498600000000 C
atom_frac 0.7781302800000000 0.2356438100000000 0.9723132700000000 C
atom_frac 0.4540601900000000 0.6246891300000001 0.7211180000000000 C
atom_frac 0.5796670900000002 0.5905164800000000 0.7696954300000000 C
atom_frac 0.7567575200000000 0.5353351800000000 0.3112902800000000 C
atom_frac 0.9524669200000000 0.5131991500000000 0.2950269200000000 C
atom_frac 0.1337542900000000 0.7464611499999999 0.7945209100000000 N
atom_frac 0.1551276700000000 0.7197653000000001 0.7549580400000000 N
atom_frac 0.8444596700000000 0.7686452000000000 0.7209651000000000 N
atom_frac 0.8262352500000000 0.7970816200000000 0.7592498000000001 N
atom_frac 0.1641105700000000 0.3486264400000000 0.2242919300000000 N
atom_frac 0.1563497500000000 0.3187807600000001 0.1856221600000000 N
atom_frac 0.5025306100000000 0.3196322400000000 0.1842047800000000 N
atom_frac 0.5102710900000000 0.3477241600000000 0.2232381500000000 N
atom_frac 0.0776709500000000 0.3445524000000000 0.4159394200000000 N
atom_frac -0.0394243600000000 0.2479154600000000 0.1254398700000000 N
atom_frac 0.5689060200000000 0.7763114800000001 0.8361871500000001 N
atom_frac 0.2332154500000000 0.7511799099999998 0.8885673699999999 N
atom_frac 0.2131095500000000 0.8625861800000000 0.9402524900000000 N
atom_frac 0.6593688300000000 0.6656145800000000 0.5768960500000000 N
atom_frac 0.2391872500000000 0.5194570700000001 0.6599379600000000 N
atom_frac 0.6102819099999999 0.4090401900000001 0.5671011800000000 O
atom_frac 0.2438836500000000 0.4514932600000000 0.4532761600000000 O
atom_frac 0.0858120900000000 0.5819883700000001 0.4585218200000000 O
atom_frac 0.2761735100000000 0.3993613999999999 0.5594176900000001 O
atom_frac 0.1094171100000000 0.5236540500000000 0.5656466500000000 O
atom_frac 0.5757673000000000 0.4380233900000000 0.4592642000000000 O
atom_frac 0.4316485400000000 0.5366830600000000 0.5059737900000000 O
atom_frac 0.7850983900000001 0.5495786899999999 0.5493304200000001 O
atom_frac 0.7530195300000000 0.5731657899999999 0.4465650000000000 O
atom_frac 0.9262646100000000 0.4429882500000000 0.5087628199999999 O
atom_frac 0.1802189900000000 0.0827526600000000 0.0191177000000000 O
atom_frac 0.4722842400000000 0.0523521400000000 0.9411611100000000 O
atom_frac 0.6425777300000000 0.9155199900000000 0.9728631500000000 O
atom_frac 0.5071357600000000 0.0685946400000000 0.0385396100000000 O
atom_frac 0.6769354000000000 0.9267938100000003 0.0743197400000000 O
atom_frac 0.1403021000000000 0.0344437500000000 0.9348915700000000 O
atom_frac 0.3234417600000000 0.9450281300000000 0.0236239400000000 O
atom_frac 0.0086124800000000 0.9508883800000000 0.0804857000000000 O
atom_frac -0.0338652100000000 0.9076243200000000 0.9951884100000000 O
atom_frac 0.8231157700000000 0.0403601200000000 0.9944940400000001 O
atom_frac 0.5392082900000000 0.7821087100000000 0.9423375700000000 O
atom_frac 0.0426411500000000 0.3068513100000000 0.3282619300000000 O
atom_frac -0.0238007900000000 0.1796754800000000 0.0519917400000000 O
atom_frac 0.2569776200000000 0.5925889700000000 0.7308739800000001 O
atom_frac 0.6818483300000000 0.4816959900000000 0.3575192700000000 O
