#=======================================================
# FHI-aims file: ./geometry.in
# Created using the Atomic Simulation Environment (ASE)
# Wed Feb  9 14:46:31 2022
#=======================================================
lattice_vector 8.7639576100000003 -0.0000202400000000 -0.2238461300000000 
lattice_vector -0.0000136600000000 10.4272979899999996 0.0000383000000000 
lattice_vector 0.3710750100000000 0.0003151700000000 23.1655011500000008 
atom_frac -0.0000038000000000 0.5000045899999999 0.5000002200000001 Zn
atom_frac 0.5000047700000000 0.9999999000000002 -0.0000002100000000 Zn
atom_frac 0.9828169400000000 0.5058260700000000 0.7665982500000000 H
atom_frac 0.5171719000000000 1.0058282099999998 0.7334016699999999 H
atom_frac 0.0171826400000000 0.4941698400000000 0.2334023400000000 H
atom_frac 0.4828246300000000 -0.0058313100000000 0.2665977800000000 H
atom_frac 0.3000561100000000 0.3370421900000000 0.6475807300000000 H
atom_frac 0.1999397700000000 0.8370396099999999 0.8524205000000000 H
atom_frac 0.6999414600000001 0.6629606899999999 0.3524171700000001 H
atom_frac 0.8000637500000000 0.1629566300000000 0.1475815300000000 H
atom_frac 0.8632504400000001 0.8057445700000000 0.6808787200000000 H
atom_frac 0.6367393000000000 0.3057463900000000 0.8191224300000000 H
atom_frac 0.1367487300000000 0.1942541900000000 0.3191240600000000 H
atom_frac 0.3632553200000000 0.6942508999999999 0.1808757400000000 H
atom_frac 0.6646332700000001 0.7871473599999999 0.6680516800000000 H
atom_frac 0.8353574500000001 0.2871493099999999 0.8319477299999999 H
atom_frac 0.3353643900000000 0.2128539000000000 0.3319540400000000 H
atom_frac 0.1646391800000000 0.7128525500000000 0.1680471700000000 H
atom_frac 0.7967057400000001 0.7343763100000000 0.6149852300000000 H
atom_frac 0.7032881500000000 0.2343763200000000 0.8850149300000001 H
atom_frac 0.2032857200000000 0.2656263200000000 0.3850178500000000 H
atom_frac 0.2967160800000000 0.7656240999999999 0.1149825300000000 H
atom_frac 0.6523959600000000 0.5269244299999999 0.6173375900000000 H
atom_frac 0.8475993600000000 0.0269261000000000 0.8826604500000000 H
atom_frac 0.3476045300000001 0.4730731199999999 0.3826643200000000 H
atom_frac 0.1524021500000000 0.9730750199999999 0.1173372600000000 H
atom_frac 0.5348741400000000 0.5692895400000000 0.6764693500000000 H
atom_frac 0.9651176100000001 0.0692919200000000 0.8235278900000000 H
atom_frac 0.4651237700000000 0.4307095000000001 0.3235317300000000 H
atom_frac 0.0348824200000000 0.9307084099999998 0.1764692700000000 H
atom_frac 0.6527828200000000 0.4291731699999999 0.6804386400000000 H
atom_frac 0.8472089900000001 0.9291760400000001 0.8195591100000000 H
atom_frac 0.3472153500000000 0.5708261799999998 0.3195637300000000 H
atom_frac 0.1527917100000000 0.0708238200000000 0.1804390200000000 H
atom_frac 0.7377940900000000 0.5318651999999999 0.7767781000000000 H
atom_frac 0.7621938000000000 0.0318672900000000 0.7232210700000001 H
atom_frac 0.2622060800000000 0.4681298699999999 0.2232235300000000 H
atom_frac 0.2378028200000000 0.9681291999999998 0.2767770100000000 H
atom_frac 0.6442690000000000 0.6798168300000000 0.7613291800000000 H
atom_frac 0.8557186700000000 0.1798191900000000 0.7386690100000000 H
atom_frac 0.3557292800000000 0.3201781799999999 0.2386740200000000 H
atom_frac 0.1442779800000000 0.8201780199999998 0.2613277399999999 H
atom_frac 0.8432204300000001 0.6788305899999999 0.7762133199999999 H
atom_frac 0.6567667900000000 0.1788330000000000 0.7237860699999999 H
atom_frac 0.1567780800000000 0.3211653900000000 0.2237893500000000 H
atom_frac 0.3432293800000000 0.8211632899999999 0.2762116300000000 H
atom_frac 0.2086831800000000 0.2336653000000000 0.8346648600000001 H
atom_frac 0.2913058000000000 0.7336654700000000 0.6653361000000000 H
atom_frac 0.7913172900000000 0.7663293000000000 0.1653329300000000 H
atom_frac 0.7086881100000000 0.2663291800000000 0.3346657700000000 H
atom_frac 0.0998135900000000 0.2007419800000000 0.7710636799999999 H
atom_frac 0.4001760500000000 0.7007401300000000 0.7289367899999999 H
atom_frac 0.9001803000000002 0.7992580399999998 0.2289351000000000 H
atom_frac 0.5998254300000000 0.2992582500000000 0.2710636500000000 H
atom_frac 0.0451664100000000 0.3281335300000000 0.8176791499999999 H
atom_frac 0.4548245300000001 0.8281314700000000 0.6823216800000000 H
atom_frac 0.9548362000000000 0.6718658600000000 0.1823214300000000 H
atom_frac 0.5451682900000000 0.1718668500000000 0.3176772400000000 H
atom_frac 0.1955279700000000 0.5335193099999999 0.8214160799999999 H
atom_frac 0.3044595800000000 0.0335194700000000 0.6785851099999999 H
atom_frac 0.8044795200000000 0.4664766100000000 0.1785833700000000 H
atom_frac 0.6955298000000000 0.9664767999999999 0.3214162700000000 H
atom_frac 0.3686098700000000 0.5481556300000000 0.7821176300000000 H
atom_frac 0.1313782800000000 0.0481543500000000 0.7178840500000000 H
atom_frac 0.6313956700000000 0.4518378900000000 0.2178804000000000 H
atom_frac 0.8686135300000001 0.9518389399999998 0.2821190700000000 H
atom_frac 0.3584253400000000 0.4413689399999999 0.8417645800000000 H
atom_frac 0.1415636200000000 0.9413676900000000 0.6582368600000000 H
atom_frac 0.6415809800000000 0.5586236500000000 0.1582331600000000 H
atom_frac 0.8584264400000000 0.0586261100000000 0.3417660100000000 H
atom_frac 0.4668187500000000 0.3602958900000000 0.7237576700000001 H
atom_frac 0.0331745200000000 0.8602956699999998 0.7762448300000000 H
atom_frac 0.5331786300000000 0.6396967699999999 0.2762391800000000 H
atom_frac 0.9668262800000001 0.1396964800000000 0.2237595300000000 H
atom_frac 0.3569511000000000 0.2162446899999999 0.7178939800000000 H
atom_frac 0.1430416300000000 0.7162436999999999 0.7821071700000000 H
atom_frac 0.6430415000000000 0.7837506899999998 0.2821025799999999 H
atom_frac 0.8569622000000000 0.2837498700000000 0.2178957200000000 H
atom_frac 0.4429709500000000 0.2569152300000000 0.7845710200000000 H
atom_frac 0.0570193000000000 0.7569159099999999 0.7154308099999999 H
atom_frac 0.5570262499999999 0.7430759499999999 0.2154252900000000 H
atom_frac 0.9429781700000001 0.2430769599999999 0.2845731200000000 H
atom_frac 0.3145139200000000 0.5272856700000000 0.4589626700000000 H
atom_frac 0.1854850600000000 0.0272788300000000 0.0410358700000000 H
atom_frac 0.6854739800000000 0.4727299500000000 0.5410343600000000 H
atom_frac 0.8145253800000001 0.9727220799999999 0.9589631100000000 H
atom_frac 0.5547527500000000 0.6516872800000000 0.4661695600000000 H
atom_frac 0.9452463000000000 0.1516814800000000 0.0338285600000000 H
atom_frac 0.4452364000000000 0.3483262599999999 0.5338279500000001 H
atom_frac 0.0547634600000000 0.8483184799999998 0.9661702300000000 H
atom_frac 0.3182242500000000 0.9101141299999999 0.5808093400000000 H
atom_frac 0.1817798000000000 0.4101115699999999 0.9191922800000000 H
atom_frac 0.6817732800000000 0.0898897900000000 0.4191950400000000 H
atom_frac 0.8182282200000001 0.5898873699999999 0.0808055300000000 H
atom_frac 0.0858933500000000 0.7759376900000000 0.5661906000000000 H
atom_frac 0.4141102800000001 0.2759342200000000 0.9338115899999999 H
atom_frac 0.9141027800000000 0.2240683800000000 0.4338132900000000 H
atom_frac 0.5858985400000000 0.7240660099999999 0.0661866500000000 H
atom_frac 0.5844289400000000 0.9557499800000000 0.5600497700000000 H
atom_frac 0.9155731000000001 0.4557461799999999 0.9399502400000000 H
atom_frac 0.4155669700000000 0.0442557100000000 0.4399529400000000 H
atom_frac 0.0844349200000000 0.5442524399999999 0.0600477200000000 H
atom_frac 0.7213344200000000 0.7836053099999997 0.4646682500000000 H
atom_frac 0.7786686100000000 0.2836020500000000 0.0353318400000000 H
atom_frac 0.2786607000000000 0.2164018500000000 0.5353337300000000 H
atom_frac 0.2213402400000000 0.7163971800000000 0.9646665300000000 H
atom_frac 0.8150830700000000 0.0369304100000000 0.5793122800000000 H
atom_frac 0.6849184200000001 0.5369266199999999 0.9206880700000000 H
atom_frac 0.1849129700000000 0.9630751499999999 0.4206905300000001 H
atom_frac 0.3150900300000001 0.4630721600000000 0.0793100600000000 H
atom_frac 0.0593083600000000 0.1542102100000000 0.5785973599999999 H
atom_frac 0.4406930800000000 0.6542067099999999 0.9214030899999999 H
atom_frac 0.9406877600000000 0.8457949500000002 0.4214055600000000 H
atom_frac 0.5593153300000000 0.3457918899999999 0.0785949900000000 H
atom_frac 0.1073774800000000 0.4331693200000000 0.6095480100000000 C
atom_frac 0.3926167899999999 0.9331697899999998 0.8904525800000000 C
atom_frac 0.8926203100000002 0.5668367700000000 0.3904513900000000 C
atom_frac 0.6073853900000000 0.0668310900000000 0.1095480800000000 C
atom_frac 0.9723853700000000 0.5146457300000000 0.6198643599999999 C
atom_frac 0.5276122000000000 0.0146419900000000 0.8801356500000000 C
atom_frac 0.0276104400000000 0.4853571500000000 0.3801363200000000 C
atom_frac 0.4723938300000000 0.9853540099999998 0.1198637800000000 C
atom_frac 0.9260357700000001 0.5380151900000000 0.6782017900000000 C
atom_frac 0.5739559600000002 0.0380170400000000 0.8217979299999999 C
atom_frac 0.0739621700000000 0.4619854099999999 0.3217992900000000 C
atom_frac 0.4260443300000001 0.9619815899999999 0.1782010200000000 C
atom_frac 0.0170190100000000 0.4890614900000000 0.7219529099999998 C
atom_frac 0.4829718500000000 0.9890628600000000 0.7780471900000000 C
atom_frac 0.9829798600000000 0.5109368599999999 0.2780474100000000 C
atom_frac 0.5170265800000000 0.0109347100000000 0.2219525300000000 C
atom_frac 0.1540980200000000 0.4189124900000000 0.7128485700000000 C
atom_frac 0.3458946200000000 0.9189119399999999 0.7871522000000000 C
atom_frac 0.8459004500000000 0.5810863600000000 0.2871506400000000 C
atom_frac 0.6541052200000000 0.0810842500000000 0.2128486900000000 C
atom_frac 0.1975201300000000 0.3924617299999999 0.6570456800000000 C
atom_frac 0.3024744600000000 0.8924602599999999 0.8429552300000002 C
atom_frac 0.8024775900000001 0.6075405999999999 0.3429530700000000 C
atom_frac 0.6975279000000000 0.1075367900000000 0.1570460400000000 C
atom_frac 0.7777905500000000 0.6089269200000000 0.6901603300000000 C
atom_frac 0.7222004300000000 0.1089295700000000 0.8098388300000000 C
atom_frac 0.2222071700000000 0.3910722799999999 0.3098418800000000 C
atom_frac 0.2777988900000000 0.8910693600000000 0.1901589600000000 C
atom_frac 0.7767131000000000 0.7418914299999999 0.6616113900000000 C
atom_frac 0.7232780500000000 0.2418929900000000 0.8383885000000000 C
atom_frac 0.2232831600000000 0.2581090800000000 0.3383920599999999 C
atom_frac 0.2767207500000000 0.7581066799999998 0.1616085800000000 C
atom_frac 0.6465086900000000 0.5287041800000000 0.6646100200000000 C
atom_frac 0.8534839400000001 0.0287063600000000 0.8353876700000000 C
atom_frac 0.3534897700000000 0.4712947800000000 0.3353918400000000 C
atom_frac 0.1465166100000000 0.9712938299999999 0.1646100100000000 C
atom_frac 0.7503037600000000 0.6251039900000001 0.7548057500000001 C
atom_frac 0.7496843800000000 0.1251064400000000 0.7451931000000001 C
atom_frac 0.2496950100000000 0.3748921399999999 0.2451966900000000 C
atom_frac 0.2503126800000000 0.8748906900000000 0.2548044700000000 C
atom_frac 0.2443168600000000 0.3698945000000000 0.7646788900000000 C
atom_frac 0.2556747100000001 0.8698939600000000 0.7353222500000000 C
atom_frac 0.7556828700000001 0.6301017199999999 0.2353195100000000 C
atom_frac 0.7443222800000000 0.1301013900000000 0.2646795100000000 C
atom_frac 0.1435722100000000 0.2780931800000000 0.7989626399999999 C
atom_frac 0.3564183500000001 0.7780922999999998 0.7010381399999999 C
atom_frac 0.8564269400000000 0.7219045199999999 0.2010362700000000 C
atom_frac 0.6435779600000000 0.2219045200000000 0.2989625700000000 C
atom_frac 0.2938403700000000 0.4798853900000000 0.8045100399999999 C
atom_frac 0.2061484400000000 0.9798846799999996 0.6954913500000000 C
atom_frac 0.7061647599999999 0.5201090999999999 0.1954883800000000 C
atom_frac 0.7938433100000000 0.0201099600000000 0.3045109400000000 C
atom_frac 0.3859166600000000 0.2974645900000000 0.7462720300000000 C
atom_frac 0.1140753200000000 0.7974642300000001 0.7537296700000000 C
atom_frac 0.6140799100000001 0.7025290800000000 0.2537249500000000 C
atom_frac 0.8859246200000001 0.2025290800000000 0.2462736300000000 C
atom_frac 0.3201129200000000 0.6153204899999999 0.4845450500000000 C
atom_frac 0.1798872500000000 0.1153148100000000 0.0154543600000000 C
atom_frac 0.6798773300000001 0.3846924200000000 0.5154537900000000 C
atom_frac 0.8201225900000000 0.8846857699999999 0.9845444299999999 C
atom_frac 0.4533666100000001 0.6854054100000000 0.4888026899999999 C
atom_frac 0.0466336500000000 0.1854000400000000 0.0111964200000000 C
atom_frac 0.5466243500000000 0.3146063800000000 0.5111964700000000 C
atom_frac 0.9533758000000001 0.8145999299999999 0.9888021800000000 C
atom_frac 0.4572810700000000 0.7968854599999999 0.5230465200000000 C
atom_frac 0.0427206100000000 0.2968812600000000 0.9769534399999998 C
atom_frac 0.5427129000000001 0.2031228700000000 0.4769548900000000 C
atom_frac 0.9572881600000002 0.7031181399999999 0.0230448100000000 C
atom_frac 0.3225740100000000 0.8264929399999997 0.5524363400000000 C
atom_frac 0.1774288300000000 0.3264894899999999 0.9475645999999999 C
atom_frac 0.6774215300000000 0.1735135300000000 0.4475664700000000 C
atom_frac 0.8225797100000000 0.6735099399999999 0.0524335100000000 C
atom_frac 0.1929626600000000 0.7514726099999999 0.5447371300000000 C
atom_frac 0.3070399800000000 0.2514689900000000 0.9552642400000001 C
atom_frac 0.8070320600000001 0.2485349600000000 0.4552654199999999 C
atom_frac 0.6929690300000000 0.7485311199999999 0.0447341100000000 C
atom_frac 0.5910574800000000 0.8778925499999999 0.5283124300000001 C
atom_frac 0.9089445300000000 0.3778887399999999 0.9716874900000000 C
atom_frac 0.4089376600000000 0.1221141600000000 0.4716897500000000 C
atom_frac 0.0910638500000000 0.6221101299999999 0.0283106100000000 C
atom_frac 0.7190786000000000 0.8612963399999999 0.4966661300000000 C
atom_frac 0.7809237600000000 0.3612928499999999 0.0033339800000000 C
atom_frac 0.2809168500000000 0.1387100400000000 0.5033362399999999 C
atom_frac 0.2190847200000001 0.6387059899999998 0.9966641800000000 C
atom_frac 0.8586262900000001 0.9336392899999999 0.4996709000000000 C
atom_frac 0.6413760500000001 0.4336358000000000 1.0003294799999998 C
atom_frac 0.1413697200000000 0.0663662000000000 0.5003318900000000 C
atom_frac 0.3586323500000000 0.5663628900000000 -0.0003313600000000 C
atom_frac 0.8956704300000000 0.0205191400000000 0.5442780300000001 C
atom_frac 0.6043313900000000 0.5205155499999999 0.9557223200000000 C
atom_frac 0.1043256300000000 0.9794862899999999 0.4557247999999999 C
atom_frac 0.3956770400000000 0.4794831800000000 0.0442758000000000 C
atom_frac 0.0327482300000000 0.0853105800000000 0.5442970400000000 C
atom_frac 0.4672534099999999 0.5853071299999998 0.9557034100000000 C
atom_frac 0.9672479100000001 0.9146947199999999 0.4557058200000000 C
atom_frac 0.5327550000000001 0.4146915600000000 0.0442947000000000 C
atom_frac 0.1893107100000000 0.6479151099999999 0.5106437900000000 N
atom_frac 0.3106907300000000 0.1479105700000000 0.9893569300000000 N
atom_frac 0.8106813300000001 0.3520955499999999 0.4893568900000000 N
atom_frac 0.6893189400000002 0.8520901499999998 0.0106417900000000 N
atom_frac 0.1377333100000000 0.4014321199999999 0.5575259500000000 O
atom_frac 0.3622659400000000 0.9014284200000000 0.9424744900000002 O
atom_frac 0.8622627700000001 0.5985761600000000 0.4424730400000000 O
atom_frac 0.6377411800000000 0.0985702700000000 0.0575262700000000 O
atom_frac 0.9022332899999999 0.5592224599999999 0.5754601300000000 O
atom_frac 0.5977646400000001 0.0592196000000000 0.9245395400000000 O
atom_frac 0.0977621900000000 0.4407835600000000 0.4245412600000000 O
atom_frac 0.4022413400000000 0.9407795600000000 0.0754592000000000 O
