#=======================================================
# FHI-aims file: ./geometry.in
# Created using the Atomic Simulation Environment (ASE)
# Wed Feb  9 14:46:23 2022
#=======================================================
lattice_vector 8.0530244199999999 -0.0035956500000000 -0.2902533400000000 
lattice_vector -4.3624513299999998 6.8835987300000001 0.3673615000000000 
lattice_vector -0.1237164600000000 -0.2512967200000000 16.1538387800000010 
atom_frac 0.5731688500000000 0.2725659000000000 0.4289282300000001 Ag
atom_frac 0.3054110000000000 0.5876529600000001 0.0746351800000000 Ag
atom_frac 0.4268309599999999 0.7274349099999999 0.5710718200000000 Ag
atom_frac 0.6945867999999999 0.4123436600000000 0.9253638800000001 Ag
atom_frac 0.0121192900000000 0.1062355100000000 0.8356649100000000 Ag
atom_frac 0.9878792799999999 0.8937643400000000 0.1643367200000000 Ag
atom_frac 0.3313590300000000 0.3520759999999999 0.7036895700000000 H
atom_frac -0.0234190300000001 0.7940455499999999 0.6123679600000000 H
atom_frac 0.1978204099999999 0.8795302899999999 0.4941220100000001 H
atom_frac 0.7185066300000000 0.4019626600000000 0.7487443700000000 H
atom_frac 0.5935173600000000 0.7429056899999998 0.8899223700000000 H
atom_frac 0.6042822400000000 0.9287427500000000 0.7623183600000001 H
atom_frac 0.0483785700000000 0.7680004600000000 0.8144241900000000 H
atom_frac 0.2252076500000000 0.1568060900000000 1.0091089100000001 H
atom_frac 0.3571056100000000 -0.0200588700000000 0.0883987000000000 H
atom_frac 0.2712910200000000 0.7805927200000000 0.7441502300000001 H
atom_frac 0.0092609200000000 0.3792468400000000 0.5532401199999999 H
atom_frac 0.8076917800000000 0.1154521500000000 0.6566612300000001 H
atom_frac 0.6686449600000000 0.6479277200000000 0.2963102500000000 H
atom_frac 1.0234194700000001 0.2059583700000000 0.3876315600000000 H
atom_frac 0.8021794900000000 0.1204700400000000 0.5058788700000000 H
atom_frac 0.2814939200000000 0.5980380400000000 0.2512536400000000 H
atom_frac 0.4064779000000000 0.2570886300000000 0.1100772000000000 H
atom_frac 0.3957216900000000 0.0712597700000000 0.2376825600000000 H
atom_frac 0.9516184500000001 0.2319951100000000 0.1855765000000000 H
atom_frac 0.7747938000000000 0.8431920099999999 -0.0091089800000000 H
atom_frac 0.6428916099999999 1.0200588500000001 0.9116015899999999 H
atom_frac 0.7287121100000000 0.2194056600000000 0.2558496200000000 H
atom_frac 0.9907393399999997 0.6207537200000000 0.4467598100000000 H
atom_frac 0.1923112199999999 0.8845476900000000 0.3433389900000001 H
atom_frac 0.4365533300000000 0.2877251500000000 0.5955372699999999 C
atom_frac 0.3029031200000000 0.2435560900000000 0.6580182799999998 C
atom_frac 0.1049730300000000 0.9400974600000001 0.6063916400000000 C
atom_frac 0.2299110699999999 0.9848091399999997 0.5419022900000000 C
atom_frac 0.6681303400000000 0.6052935900000000 0.6822897700000000 C
atom_frac 0.6886957500000001 0.5172922000000000 0.7527165300000002 C
atom_frac 0.6250979500000000 0.7084467500000000 0.8301816800000000 C
atom_frac 0.6215824500000001 0.8051310900000002 0.7586787300000000 C
atom_frac 0.1890520800000000 0.7178972100000000 0.9196630300000000 C
atom_frac 0.1192437800000000 0.8165339300000000 0.8754350200000000 C
atom_frac 0.2196521100000000 0.0327154200000000 0.9827285100000001 C
atom_frac 0.2906541800000000 -0.0656403800000000 0.0265572200000000 C
atom_frac 0.0904403000000000 0.4781836899999999 0.7822456800000001 C
atom_frac 0.1809003700000001 0.6295059100000001 0.7253114800000000 C
atom_frac 0.0291993800000000 0.4076205600000000 0.6198261500000000 C
atom_frac 0.9207603500000000 0.2622428800000000 0.6759240299999999 C
atom_frac 0.5634486100000001 0.7122775200000001 0.4044625300000000 C
atom_frac 0.6970994700000001 0.7564468000000000 0.3419817900000000 C
atom_frac 0.8950287500000000 0.0599060200000000 0.3936087900000000 C
atom_frac 0.7700902400000000 0.0151932700000000 0.4580979400000000 C
atom_frac 0.3318715800000000 0.3947088100000001 0.3177094800000000 C
atom_frac 0.3113046800000000 0.4827082800000000 0.2472823900000000 C
atom_frac 0.3749005200000000 0.2915508800000000 0.1698178700000000 C
atom_frac 0.3784188500000000 0.1948697500000000 0.2413214000000000 C
atom_frac 0.8109486500000000 0.2821034100000000 0.0803365700000000 C
atom_frac 0.8807560000000000 0.1834663800000000 0.1245650200000000 C
atom_frac 0.7803445900000000 0.9672812299999999 0.0172725700000000 C
atom_frac 0.7093445699999998 1.0656374200000001 0.9734432400000002 C
atom_frac 0.9095593800000000 0.5218175200000000 0.2177542100000000 C
atom_frac 0.8190982100000000 0.3704965500000000 0.2746883800000000 C
atom_frac 0.9708005800000000 0.5923796700000000 0.3801737500000000 C
atom_frac 0.0792414300000000 0.7377575300000000 0.3240760400000000 C
atom_frac 0.6624552900000000 0.5039742900000000 0.5855628400000001 S
atom_frac 0.1463935600000000 0.4917157200000000 0.8907606800000001 S
atom_frac 0.3375459400000000 0.4960293200000000 0.4144360800000000 S
atom_frac 0.8536080500000000 0.5082854600000000 0.1092388800000000 S
atom_frac 0.3986816200000000 0.1595027300000000 0.5355329800000000 N
atom_frac 0.1359080200000000 0.0696283600000000 0.6645619500000000 N
atom_frac 0.6370845699999999 0.7520518899999998 0.6810286800000002 N
atom_frac 0.6584559799999999 0.5624958799999998 0.8295266600000000 N
atom_frac 0.2886741700000000 0.7795360800000000 -0.0055116800000000 N
atom_frac 0.1415459199999999 0.9830939700000000 0.9046782300000001 N
atom_frac 0.9602342600000000 0.2916088500000000 0.7600501800000000 N
atom_frac 0.1699319400000000 0.5920211799999999 0.6418330100000000 N
atom_frac 0.6013199000000000 0.8404990100000000 0.4644671700000000 N
atom_frac 0.8640945600000000 0.9303744300000000 0.3354384400000000 N
atom_frac 0.3629179200000000 0.2479510300000000 0.3189710600000000 N
atom_frac 0.3415413200000000 0.4375008700000000 0.1704724100000000 N
atom_frac 0.7113277500000000 0.2204637800000000 1.0055113700000000 N
atom_frac 0.8584533300000000 0.0169055700000000 0.0953221900000000 N
atom_frac 0.0397675199999999 0.7083915499999999 0.2399498100000000 N
atom_frac 0.8300677599999999 0.4079797299999999 0.3581668500000000 N
