#=======================================================
# FHI-aims file: ./geometry.in
# Created using the Atomic Simulation Environment (ASE)
# Fri Jan 14 15:03:58 2022
#=======================================================
lattice_vector 5.4299194740000001 -0.0011459100000000 0.0169706030000000 
lattice_vector 0.0162042880000000 7.5893078660000004 -2.2223906969999998 
lattice_vector -0.0171735230000000 0.0247322310000000 7.9079563249999998 
atom_frac 0.5000056760038234 0.9995551764187596 0.0004447074871834 Co
atom_frac 0.9999887850442948 0.8827769955418174 0.1172357220551916 Co
atom_frac 0.0000073577926543 0.1175423711968762 0.8824422721359754 Co
atom_frac 0.8426559540392093 0.7902527393971396 0.7878091001790396 H
atom_frac 0.1573436649551780 0.2121949854804938 0.2097355974976765 H
atom_frac 0.6625607993699845 0.5671956356989011 0.0508217586630052 C
atom_frac 0.3374381737823029 0.9491777722692020 0.4328093354266188 C
atom_frac 0.3371288284601093 0.4326551306380466 0.9499075550131695 C
atom_frac 0.6628738432446966 0.0500925649794866 0.5673445448077246 C
atom_frac 0.4212017570667186 0.6169088151175401 0.9927020384514337 C
atom_frac 0.5787933015502843 0.0073021262940500 0.3831098177195074 C
atom_frac 0.5783987285347792 0.3828646203511497 0.0083016385755244 C
atom_frac 0.4216063378181120 0.9916925870367449 0.6171206902730262 C
atom_frac 0.8567932696413437 0.6445771296925428 0.1143256084049682 O
atom_frac 0.1432050838500274 0.8856794053997344 0.3554237376822229 O
atom_frac 0.1431846015560865 0.3553592485822249 0.8856190994597241 O
atom_frac 0.8568170041024177 0.1143764998226118 0.6446391910163882 O
atom_frac 0.8233454902653677 0.8911371058595847 0.8903213238682994 O
atom_frac 0.1766567456154462 0.1096859449012014 0.1088469658490396 O
atom_frac 0.3239794863355954 0.7601123594811907 0.9823029098662843 O
atom_frac 0.6760069379912109 0.0177053137659797 0.2399122859636051 O
atom_frac 0.6758008556365098 0.2397011533216399 0.0185409300643968 O
atom_frac 0.3242171382361150 0.9814515695263211 0.7602794489804624 O
