#=======================================================
# FHI-aims file: ./geometry.in
# Created using the Atomic Simulation Environment (ASE)
# Fri Jan 14 15:06:22 2022
#=======================================================
lattice_vector -6.7725016619999998 -0.0024824600000000 -0.0632194940000000 
lattice_vector -0.1520229410000000 21.3533914749999987 -6.5864253000000001 
lattice_vector 0.0017330800000000 -0.0303018640000000 -24.8692155369999988 
atom_frac 0.1519537029363676 0.4984074807690532 0.4997326877581756 Al
atom_frac 0.6522114311574184 0.4983417932553065 0.4976034129337848 Al
atom_frac 0.6395329132117025 0.9993397343864319 0.0001633562975201 Al
atom_frac 0.1379359716365514 0.9982682468410927 0.9989567416602441 Al
atom_frac 0.6659825541101226 0.7258774814583756 0.6277748925417868 H
atom_frac 0.6755940109974643 0.3455665077519611 0.3032745961674550 H
atom_frac 0.6494014584493897 0.1408546579353853 0.1994114562386287 H
atom_frac 0.6635379496562874 0.0748607499370948 0.1341070338245416 H
atom_frac 0.6729559105445801 0.8376975397257667 0.9891443403936577 H
atom_frac 0.6544006256640953 0.7761918684148346 0.9568488128781993 H
atom_frac 0.3966239041398012 0.7667906311970185 0.0322067426357436 H
atom_frac 0.2992944462569227 0.8414856795100220 0.9966432656696540 H
atom_frac 0.2830144946948038 0.7794686049861497 0.9654750143080193 H
atom_frac 0.0789061871211345 0.2129602609598464 0.4368688157425851 H
atom_frac 0.1781701141274752 0.1974922975286476 0.3754898459361513 H
atom_frac 0.8346487626783909 0.1976987188314681 0.3374761086283514 H
atom_frac 0.8607300826940969 0.1396806674875321 0.4042406879494750 H
atom_frac 0.7346701013283974 0.2115932999261219 0.3990110202402590 H
atom_frac 0.0360177365705283 0.3920627742824222 0.4458633118000890 H
atom_frac 0.9372993345176680 0.3369524215950931 0.4187913543296063 H
atom_frac 0.1608355975257466 0.1849717964622144 0.9978235581248072 H
atom_frac 0.0524215188241044 0.2320056089167650 0.0375045334424087 H
atom_frac 0.8301264253046980 0.2362161016824160 0.9594834257456526 H
atom_frac 0.8306632824962605 0.1537195941660841 0.9736227195204848 H
atom_frac 0.7139613298708339 0.1886783184871419 0.0217682007194568 H
atom_frac 0.9920000340000071 0.2214036192124382 0.1790501937660736 H
atom_frac 0.8893861308953814 0.1868501363272586 0.1295709946630907 H
atom_frac 0.5766185634498839 0.8445218780268245 0.7598489053357513 H
atom_frac 0.4571557407540396 0.8921843736156843 0.7965624442504267 H
atom_frac 0.2580467859852007 0.7766619151057200 0.8209173584582531 H
atom_frac 0.3666925693679133 0.8141264444297394 0.8666258426308103 H
atom_frac 0.2129487467288484 0.9628895793353178 0.8811173464214052 H
atom_frac 0.3688441062878167 0.9062739585551256 0.8780641311499623 H
atom_frac 0.5649634836518586 0.6215447640852858 0.5453845182612227 H
atom_frac 0.4907764566410221 0.6865712494873719 0.5648607247771056 H
atom_frac 0.1960312808488780 0.5182310468136038 0.6261587503823804 H
atom_frac 0.2643979046647472 0.5332661912960575 0.6889142497790316 H
atom_frac 0.3798852481139220 0.6836346107528825 0.6991127454241807 H
atom_frac 0.4458174018429588 0.6138698223705887 0.6816711968758753 H
atom_frac 0.6502827480506993 0.6223346859483173 0.7617312458018547 H
atom_frac 0.4332336684771788 0.6304408383311113 0.8004305431082842 H
atom_frac 0.4863951786795865 0.5582089287986775 0.7862989848835940 H
atom_frac 0.6484874812613980 0.5132025508042659 0.3410723861517795 H
atom_frac 0.6667607350542539 0.4793644986361015 0.2842264667116581 H
atom_frac 0.0320963973685267 0.4684861807695596 0.2963230439381661 H
atom_frac 0.9606551654718058 0.5479387914394849 0.2873331463596288 H
atom_frac 0.0194136512825835 0.4976684215767264 0.3554381030939240 H
atom_frac 0.3978459075328046 0.5771485111587894 0.4626930354985533 H
atom_frac 0.9012932597651684 0.4191148518011829 0.5338311541395910 H
atom_frac 0.3992970531592234 0.9299351747525294 0.9817413839881368 H
atom_frac 0.8919203777511626 0.0624856013467081 0.0239374860276129 H
atom_frac 0.4004273222179293 0.4327774517053201 0.4366828062576785 C
atom_frac 0.4092525673630405 0.4141541691902190 0.5854475683021291 C
atom_frac 0.9003146682626165 0.5621056367843238 0.5628933391170179 C
atom_frac 0.8985295674931135 0.5839468001716241 0.4133099181034510 C
atom_frac 0.9012710249621988 0.6355577174859093 0.3628614122693037 C
atom_frac 0.9001824355454461 0.6788833274654708 0.3190163592553504 C
atom_frac 0.8983290743674813 0.7258412294844589 0.2710016744511493 C
atom_frac 0.8953356542192380 0.7689658055342079 0.2265616898205708 C
atom_frac 0.8923220652378420 0.8156427649426023 0.1783424853579305 C
atom_frac 0.8897364949123697 0.8583607110263716 0.1341024448642685 C
atom_frac 0.7246843819965605 0.8757972104760937 0.8755794038985628 C
atom_frac 0.7305168907669353 0.8579232720699251 0.8256259437149894 C
atom_frac 0.9123813879910614 0.8305004239121986 0.8133401182882736 C
atom_frac 0.0811549633528870 0.8383683296689951 0.8443599282731429 C
atom_frac 0.0763043546055613 0.8895013515394079 0.8689615415893147 C
atom_frac 0.8957003328755631 0.9009518687689350 0.8928300155910948 C
atom_frac 0.9257655975754630 0.7221697758169298 0.7070772400866761 C
atom_frac 0.9212373055797298 0.7948721274653107 0.7731793519774400 C
atom_frac 0.7699658141108897 0.6872738138737232 0.6324821742650998 C
atom_frac 0.7521335087096401 0.6475449416368377 0.5984283698668804 C
atom_frac 0.8971371139315067 0.5994606120001719 0.6026036841443982 C
atom_frac 0.0429108886044887 0.5885628884773055 0.6457437980757702 C
atom_frac 0.0510447498114956 0.6278005668790813 0.6812965778711800 C
atom_frac 0.9183663585541736 0.6783778930431907 0.6731899524895439 C
atom_frac 0.5556486209483253 0.3864572053569474 0.3644204477269498 C
atom_frac 0.5482016381477307 0.3483322263686475 0.3294683247678735 C
atom_frac 0.3756345277432373 0.3145644045561156 0.3268570176845956 C
atom_frac 0.2156882989203693 0.3173732238204465 0.3619993260572728 C
atom_frac 0.2208541656848624 0.3557733970542643 0.3986672918259871 C
atom_frac 0.3935849751409535 0.3918320169872657 0.3994933186456749 C
atom_frac 0.3571168949305274 0.2136345817071970 0.2147170677236616 C
atom_frac 0.3674753534381948 0.2800654026293543 0.2849309231335865 C
atom_frac 0.5227618004173918 0.1381086374528806 0.1735888706744362 C
atom_frac 0.5314076430305619 0.1016889502416589 0.1374425340442471 C
atom_frac 0.3672288344874488 0.0988109413976233 0.1035277164546216 C
atom_frac 0.1958172278129879 0.1327677897510569 0.1074680220822941 C
atom_frac 0.1808195434012703 0.1681577652646453 0.1468462129413411 C
atom_frac 0.3512936527531421 0.1726255169209097 0.1788064570970604 C
atom_frac 0.4097178016424508 0.3638221336488882 0.6369027007935558 C
atom_frac 0.4081425719730872 0.3205013811632468 0.6807588684232256 C
atom_frac 0.4057047008218858 0.2730958641511805 0.7285278467338260 C
atom_frac 0.4024781036595613 0.2293414110472440 0.7724869904842536 C
atom_frac 0.3982381301989973 0.1820336611103315 0.8203263366138956 C
atom_frac 0.3937738598501426 0.1388189511912898 0.8642333382654357 C
atom_frac 0.3902334568521582 0.0882147178803194 0.9159392243292501 C
atom_frac 0.3814392004343431 0.0585151690978236 0.0653558940835453 C
atom_frac 0.8894093037896624 0.9088554308072357 0.0824333838473665 C
atom_frac 0.8877317130408570 0.9397288686544483 0.9317794532027720 C
atom_frac 0.5785000878217375 0.8173558194826069 0.9633956661391636 C
atom_frac 0.3773575327755764 0.8006821837219036 0.9904783775325756 C
atom_frac 0.0523683262741272 0.2188127473932937 0.3918654157393320 C
atom_frac 0.8590237728756661 0.1901887239277543 0.3825435954961378 C
atom_frac 0.0329523163041969 0.1895255625192789 0.0241479595675216 C
atom_frac 0.8405535253164513 0.1916885615622945 0.9931486661936972 C
atom_frac 0.3815933603993854 0.6322518306166812 0.7145949731006527 C
atom_frac 0.4942740287375926 0.6093894362448680 0.7690674527756797 C
atom_frac 0.7349547597895736 0.4807115686405580 0.3240003964857010 C
atom_frac 0.9494960271307135 0.4998124131194430 0.3152623051949989 C
atom_frac 0.0912095023935748 0.7638542328893861 0.7673468794383214 N
atom_frac 0.0949983608408829 0.7285375822065702 0.7333663525138550 N
atom_frac 0.7643685267671430 0.7587517013309646 0.7067088859435773 N
atom_frac 0.7636136030930840 0.7960370488116906 0.7387364570883649 N
atom_frac 0.1951492699126902 0.2781117770251385 0.2585714980799523 N
atom_frac 0.1900571185870845 0.2434885166075418 0.2238742010500943 N
atom_frac 0.5370326221495674 0.2263446118285799 0.2330530765185088 N
atom_frac 0.5411501302024319 0.2588178156109961 0.2691172362796195 N
atom_frac 0.0597579891582143 0.3536874285345633 0.4325732062825126 N
atom_frac 0.0064641943605253 0.1970212044758667 0.1503161965662088 N
atom_frac 0.5683937514580036 0.8630057594628724 0.7929813241245114 N
atom_frac 0.2442707090684663 0.8023625240866323 0.8489474253639600 N
atom_frac 0.2381856814409104 0.9282318724931214 0.8628930052320812 N
atom_frac 0.6017596632150199 0.6579409868254870 0.5599528411472933 N
atom_frac 0.1688814476560409 0.5385933156924381 0.6568795358720153 N
atom_frac 0.5764937132487019 0.4372867497742591 0.5667648754789241 O
atom_frac 0.2333093204154579 0.4534230659922259 0.4491819668675632 O
atom_frac 0.0637280941105800 0.5669503530207222 0.4374197077898431 O
atom_frac 0.2410478965165622 0.4311771716307219 0.5632177991743390 O
atom_frac 0.0686208348501651 0.5405931837046225 0.5523598113879373 O
atom_frac 0.5659561296108250 0.4446047502120293 0.4552300633576324 O
atom_frac 0.4012482080514203 0.5376780542576470 0.4925075715910053 O
atom_frac 0.7387020385626569 0.5537598814498280 0.5394959691284954 O
atom_frac 0.7301007977426365 0.5597518638289501 0.4292881511871158 O
atom_frac 0.9031825646242806 0.4593370727898999 0.5049926854000973 O
atom_frac 0.2203066888224469 0.0414227667991227 0.0488304249709586 O
atom_frac 0.5581591030712827 0.0699329369179225 0.9375585395616214 O
atom_frac 0.7202338403592063 0.9551705068783252 0.9478561136624108 O
atom_frac 0.5534117792585105 0.0433355404500730 0.0520409373350219 O
atom_frac 0.7199037147095879 0.9284081765195396 0.0625740263723600 O
atom_frac 0.2199484255377797 0.0678069483907180 0.9343418788929797 O
atom_frac 0.3908012253999614 0.9623470738675055 0.0004506225601304 O
atom_frac 0.0587758442387454 0.9278090620846482 0.0621812593358017 O
atom_frac 0.0529384803676791 0.9556320216785892 0.9485636688413875 O
atom_frac 0.8884485838135703 0.0355381857052706 0.9994518358514881 O
atom_frac 0.5532794398777696 0.8633451704250560 0.9083239254990546 O
atom_frac 0.0433510928412488 0.2851032082392563 0.3621163027273512 O
atom_frac 0.0314134019359429 0.1352514508952680 0.0742263253072935 O
atom_frac 0.1791911999845865 0.6105391614886814 0.7262553584075206 O
atom_frac 0.7281883716799623 0.4187730064492499 0.3635501554731350 O
