#=======================================================
# FHI-aims file: ./geometry.in
# Created using the Atomic Simulation Environment (ASE)
# Fri Jan 14 15:06:22 2022
#=======================================================
lattice_vector 4.7925801249999997 0.0043866850000000 -1.9585398310000000 
lattice_vector -1.3483491649999999 5.6114384050000004 -3.2968038669999999 
lattice_vector 0.0056049190000000 0.0719997310000000 6.8231004390000001 
atom_frac 0.9999994923491259 0.0000018404987614 0.9999992136286054 Cu
atom_frac 0.8034490893354871 0.4306390128861323 0.2404345973322251 H
atom_frac 0.1965531912173404 0.1903374228945296 0.7590453126177154 H
atom_frac 0.1965184732525528 0.5693316345798181 0.7595658364132447 H
atom_frac 0.8034702898131130 0.8096316538925096 0.2409352387114294 H
atom_frac 0.8891929165299930 0.4611608187854728 0.1315818993395155 C
atom_frac 0.1109800369177592 0.3295198951653687 0.8683722803664722 C
atom_frac 0.1108708855157232 0.5388627961106565 0.8684512339157777 C
atom_frac 0.8890138722794559 0.6704477847056439 0.1315800546154051 C
atom_frac 0.9998496391040060 0.2921001789892587 0.9997511254339814 N
atom_frac 0.0001740736864377 0.7079663256332864 0.0002751022528286 N
atom_frac 0.5123533947339850 0.7746476203381929 0.5496556638667228 N
atom_frac 0.4876442949418519 0.2253708624994175 0.4503648060691745 N
atom_frac 0.7779057588864191 0.7994800266720927 0.5999278910900895 O
atom_frac 0.2220445994408279 0.2005035059549698 0.4000415867310210 O
atom_frac 0.4536037566095458 0.8664128375473014 0.7323348472923499 O
atom_frac 0.5463727428934746 0.1335896499566118 0.2676835363082262 O
