#=======================================================
# FHI-aims file: ./geometry.in
# Created using the Atomic Simulation Environment (ASE)
# Fri Jan 14 15:06:22 2022
#=======================================================
lattice_vector 7.1811840680000003 0.4070468940000000 -1.2797987950000000 
lattice_vector -2.9374217749999998 6.7938214070000003 -1.3415886910000001 
lattice_vector 0.0552426940000000 -0.3990982350000000 7.8759426719999999 
atom_frac 0.3836249193947409 0.2841212651447833 0.0163430069421153 Bi
atom_frac 0.6163555178890476 0.7159080258968585 0.9836848086729404 Bi
atom_frac 0.6458308576154792 0.2311592905955919 0.6140552877087728 H
atom_frac 0.3541574256606809 0.7688676977225481 0.3859162745745053 H
atom_frac 0.8929170260372176 0.2570506796058254 0.8849087288951341 H
atom_frac 0.1070814026895164 0.7430012942144301 0.1150725470701346 H
atom_frac 0.3234625232264534 0.2537855559841374 0.6031802131050767 H
atom_frac 0.6765502335149378 0.7461731150490750 0.3968560611035700 H
atom_frac 0.8458853607416543 0.2144305639129626 0.4392351276545341 C
atom_frac 0.1541471403250371 0.7855790253208995 0.5607609710516712 C
atom_frac 0.7922237910170866 0.2312127713711050 0.6023341827087733 C
atom_frac 0.2077664973563528 0.7687751013549399 0.3976500877783663 C
atom_frac 0.9300894655153726 0.2478522173129960 0.7559886298008323 C
atom_frac 0.0698766113204029 0.7520966682099867 0.2439837956677096 C
atom_frac 0.1702855592512478 0.2434295638106362 0.5974248162225635 C
atom_frac 0.8297113124978281 0.7565643732269078 0.4025691751590871 C
atom_frac 0.0402493823952241 0.2241474185440424 0.4371127236824108 C
atom_frac 0.9597636585899919 0.7758551993718894 0.5628701375442303 C
atom_frac 0.6893161572458696 0.1758038187143640 0.2699679887206656 C
atom_frac 0.3107242199582885 0.8242078913606787 0.7300221329445408 C
atom_frac 0.1068562470678955 0.2097128708588372 0.2662935726529980 C
atom_frac 0.8931649356883824 0.7903102434246563 0.7337207663959263 C
atom_frac 0.1135328342380504 0.2503337157791634 0.7506065385078458 N
atom_frac 0.8864503063819882 0.7496503615620043 0.2493810027583550 N
atom_frac 0.4175510996102574 0.5790529892616476 0.1245695121046566 O
atom_frac 0.5823859312152068 0.4209306111171928 0.8754129946979248 O
atom_frac 0.6717189631270983 0.3257753860997923 0.2302964570621668 O
atom_frac 0.3282840833312831 0.6742238273059865 0.7697184817931200 O
atom_frac 0.2921520237846451 0.2330936616809680 0.2845071024218556 O
atom_frac 0.7078385019678561 0.7668826659483013 0.7155565001595079 O
atom_frac 0.5761233275822732 0.0008594702728146 0.1911015682427789 O
atom_frac 0.4238984295999443 0.9991302070285568 0.8088703474999619 O
atom_frac 0.9835955553886039 0.1776623762756344 0.1214387002563555 O
atom_frac 0.0164320960334549 0.8223700077849470 0.8785896961344476 O
