#=======================================================
# FHI-aims file: ./geometry.in
# Created using the Atomic Simulation Environment (ASE)
# Wed Feb  9 14:46:29 2022
#=======================================================
lattice_vector 6.7109574500000004 0.2085312900000000 0.5597568600000000 
lattice_vector -0.0195181400000000 9.7501727200000001 4.0457815699999999 
lattice_vector 0.0435023100000000 -0.1737431500000000 12.7511054500000007 
atom_frac 0.4997458800000000 -0.0000253600000000 0.9999946500000000 Ni
    initial_moment         2.000000
atom_frac 0.4673209899999999 0.0948583100000000 0.1827402900000000 P
atom_frac 0.5323075800000000 0.9052145600000000 0.8171815299999999 P
atom_frac 0.6467363400000000 0.3244820700000000 0.0496781800000000 H
atom_frac 0.3521673200000000 0.6759621500000002 0.9500052900000000 H
atom_frac 0.8278144700000001 0.2781093000000000 0.1535975300000000 H
atom_frac 0.1721166500000000 0.7211765700000000 0.8455627400000001 H
atom_frac 0.7292780300000000 0.5294517500000000 0.0895609200000000 H
atom_frac 0.2727774600000000 0.4700354700000000 0.9106268500000001 H
atom_frac 0.6665400400000000 0.4434301600000001 0.2367068499999999 H
atom_frac 0.3361609300000000 0.5556794600000000 0.7635103100000001 H
atom_frac 0.4778445800000000 0.4855502700000000 0.1374382700000000 H
atom_frac 0.5240682700000000 0.5148600700000000 0.8631537000000001 H
atom_frac 0.0512632500000000 0.0214281600000000 0.2383597300000000 H
atom_frac 0.9485015500000000 0.9781934999999999 0.7615925000000000 H
atom_frac 0.8743777900000000 0.8668984600000001 0.4120925600000001 H
atom_frac 0.1256201200000000 0.1326952100000000 0.5878891200000002 H
atom_frac 0.4162871200000000 0.7956632000000000 0.5850764300000000 H
atom_frac 0.5835724300000000 0.2047729100000000 0.4149550600000000 H
atom_frac 0.5975371800000000 0.9471773099999998 0.4078917500000001 H
atom_frac 0.4021488600000000 0.0533553100000000 0.5920794700000002 H
atom_frac 0.8070095700000000 0.6516153900000000 0.7044651300000000 H
atom_frac 0.1930645200000000 0.3484404600000000 0.2956567300000000 H
atom_frac 0.8113703000000000 0.6696564800000000 0.5582872600000001 H
atom_frac 0.1887213000000000 0.3302134900000000 0.4418822000000001 H
atom_frac 0.7589482100000000 0.8162404100000001 0.5992227299999999 H
atom_frac 0.2410398300000000 0.1837337200000000 0.4008006500000000 H
atom_frac 0.5643965399999999 0.7483229500000000 0.2187782100000000 H
atom_frac 0.4352686600000000 0.2517780600000000 0.7812189600000001 H
atom_frac 0.0084118100000000 0.5614058800000000 0.3791797300000000 H
atom_frac 0.9913033400000000 0.4386400000000000 0.6208250900000000 H
atom_frac 0.8472990400000000 0.7035890200000000 0.2006420000000000 H
atom_frac 0.1523862300000000 0.2963740700000000 0.7993691100000000 H
atom_frac 0.0535527000000000 0.8756209000000000 0.0446618300000000 H
atom_frac 0.9460867600000000 0.1244449000000000 0.9553378300000001 H
atom_frac 0.6736421900000001 0.3168026900000000 0.1361385500000000 C
atom_frac 0.3263721300000000 0.6830925400000000 0.8635422500000001 C
atom_frac 0.6340315300000000 0.4507025100000000 0.1514489500000000 C
atom_frac 0.3677223900000001 0.5490121600000001 0.8487563500000000 C
atom_frac 0.3344839600000001 0.9947063599999999 0.3116829699999999 C
atom_frac 0.6652178200000000 0.0054158100000000 0.6882883500000001 C
atom_frac 0.1313339600000000 0.9720875500000001 0.3149293300000001 C
atom_frac 0.8684663900000000 0.0277703100000000 0.6850422500000001 C
atom_frac 0.0318252700000000 0.8863237300000002 0.4130063199999999 C
atom_frac 0.9680780500000000 0.1134932100000000 0.5869948100000000 C
atom_frac 0.1351667700000000 0.8238052900000000 0.5105510900000000 C
atom_frac 0.8647647600000000 0.1762499200000000 0.4894718700000000 C
atom_frac 0.3401514600000000 0.8458219600000002 0.5073554100000000 C
atom_frac 0.6597007000000000 0.1544634300000000 0.4926555699999999 C
atom_frac 0.4382277300000000 0.9302488800000002 0.4091253100000000 C
atom_frac 0.5615245700000000 0.0700803600000000 0.5908665800000001 C
atom_frac 0.8454473000000000 0.7193611000000000 0.6169808200000000 C
atom_frac 0.1546000400000000 0.2806250500000000 0.3831151000000000 C
atom_frac 0.4039147800000000 0.7367721100000001 0.2172026600000000 C
atom_frac 0.5957644200000000 0.2633251600000000 0.7827937200000000 C
atom_frac 0.3003100000000000 0.6432872399999999 0.3105188500000000 C
atom_frac 0.6993533100000000 0.3568343300000000 0.6895004300000002 C
atom_frac 0.0957996800000000 0.6311124699999999 0.3060549700000000 C
atom_frac 0.9038961700000000 0.3689463300000000 0.6939432700000000 C
atom_frac 0.0067727900000000 0.7116069600000001 0.2082513500000000 C
atom_frac 0.9928978000000001 0.2884371500000000 0.7917449800000000 C
atom_frac 0.1201025500000000 0.8063453600000000 0.1216834600000000 C
atom_frac 0.8795474300000000 0.1937167300000000 0.8783151700000001 C
atom_frac 0.4064349600000000 0.5656842200000000 0.4115226700000000 C
atom_frac 0.5931634600000000 0.4345255700000000 0.5885360500000001 C
atom_frac 0.3028569400000000 0.1553512900000000 0.0470944800000000 S
atom_frac 0.6966438800000001 0.8446083700000000 0.9528772100000000 S
atom_frac 0.6979197499999998 -0.0088821700000000 0.1367366000000000 S
atom_frac 0.3016537400000000 1.0089107200000000 0.8631847400000001 S
atom_frac 0.3155995500000000 0.8189915299999999 0.1262484300000000 N
atom_frac 0.6840495200000000 0.1810766500000000 0.8737363200000000 N
atom_frac 0.6057933599999999 0.5730179600000002 0.4018943200000001 N
atom_frac 0.3938359000000000 0.4271455100000000 0.5981498900000001 N
atom_frac 0.2962088500000000 0.4951173699999999 0.5060917100000001 N
atom_frac 0.7033398100000001 0.5052734600000000 0.4940248300000001 N
atom_frac 0.5407236000000000 0.2169485700000000 0.2161368300000001 O
atom_frac 0.4590567000000000 0.7831972699999999 0.7836472100000000 O
atom_frac 0.0526341500000000 0.7413311700000002 0.6103512200000000 O
atom_frac 0.9473891100000000 0.2587458800000000 0.3897100300000000 O
