#=======================================================
# FHI-aims file: ./geometry.in
# Created using the Atomic Simulation Environment (ASE)
# Fri Jan 14 15:06:16 2022
#=======================================================
lattice_vector 6.6184898870000000 -0.0315457570000000 0.0000303840000000 
lattice_vector -0.3137782780000000 7.7658810999999996 0.0008290550000000 
lattice_vector 0.0502276740000000 -0.0072235120000000 24.7910976150000018 
atom_frac 0.8922758077884935 0.0556963023470018 0.7881686812435190 Co
atom_frac 0.6243863411033602 0.4387780767381031 0.2881747056316043 Co
atom_frac 0.1239887150842449 0.9398654160207797 0.2106666317769025 Co
atom_frac 0.3921769972158983 0.5558795968142859 0.7120268534885099 Co
atom_frac 0.8662838433899013 0.2331191382950308 0.6489821733633007 H
atom_frac 0.6906353538000189 0.9822859457411823 0.7059233487133623 H
atom_frac 0.6677669745284476 0.1910433093782230 0.7260195415578181 H
atom_frac 0.1647730429852742 0.0591632469784713 0.6308359632486642 H
atom_frac 0.9340742259346513 0.9384807158529541 0.6262293750787933 H
atom_frac 0.2992885844595393 0.1425846002423157 0.8159143661191165 H
atom_frac 0.5296504081214123 0.0975838415390413 0.8910191613042996 H
atom_frac 0.0313508517532810 0.8313088995524041 0.9741916320809878 H
atom_frac 0.8172271594852133 0.8937388549930819 0.8942510152228920 H
atom_frac 0.3571307531781329 0.8458814000055457 0.0177776665470617 H
atom_frac 0.5600334714004233 0.8351217099717232 0.9717190015636062 H
atom_frac 0.6325143660915842 0.2713792484430400 0.1420129051176247 H
atom_frac 0.8246699208280218 0.5169295263713565 0.1991277859853113 H
atom_frac 0.8505380604608915 0.3081013124764738 0.2169709791737232 H
atom_frac 0.3354432961538336 0.4470093593761106 0.1314765995102363 H
atom_frac 0.5634556952023289 0.5708854604538944 0.1251428893023102 H
atom_frac 0.2005711968707117 0.3525467119828533 0.3196059225887780 H
atom_frac 0.9616303638031455 0.4024756698037137 0.3935536561904128 H
atom_frac 0.4532596172006719 0.6727504530024292 0.4778299317358829 H
atom_frac 0.6732823724742829 0.6080994189022917 0.3985017343139815 H
atom_frac 0.1288573204474162 0.6554482856675534 0.5203219672821503 H
atom_frac 0.9272555726255048 0.6658799860100258 0.4739826351224181 H
atom_frac 0.1326739469602742 0.7704796962212869 0.3569469708931337 H
atom_frac 0.3230739520703877 0.0176023419453486 0.2998655285804475 H
atom_frac 0.3491123023143956 0.8088651522816833 0.2820770143973731 H
atom_frac 0.8351574338264810 0.9462840568795130 0.3687678635703548 H
atom_frac 0.0636374832921405 0.0694147265826288 0.3750281920630697 H
atom_frac 0.6976687539086158 0.8535340412988506 0.1807141113694470 H
atom_frac 0.4597944972805834 0.9016443361270489 0.1063393221953888 H
atom_frac 0.9524497885353185 0.1722232748529749 0.0221119002761228 H
atom_frac 0.1708323022450315 0.1085391101378974 0.1014450777289397 H
atom_frac 0.6290014738000805 0.1548721694841078 0.9796517632272169 H
atom_frac 0.4268258092087506 0.1656814205058197 0.0259802805957605 H
atom_frac 0.3654364371107235 0.7333343135200110 0.8512640807533671 H
atom_frac 0.1901041330795863 0.4824533523447912 0.7944046911257342 H
atom_frac 0.1674444309593071 0.6911933607032951 0.7743179496595544 H
atom_frac 0.6639163077337287 0.5596689497747677 0.8692138672467492 H
atom_frac 0.4333067622664332 0.4388056709679092 0.8740453277575354 H
atom_frac 0.7992779568725225 0.6422227712733459 0.6841344235794082 H
atom_frac 0.0300974082197101 0.5970793816262868 0.6088505764561559 H
atom_frac 0.5318870227281423 0.3317662504316771 0.5258487941569854 H
atom_frac 0.3173003082456134 0.3943360048360988 0.6059446687758481 H
atom_frac 0.8580533340471844 0.3462363473997456 0.4820874438694175 H
atom_frac 0.0607574057842015 0.3353052250701580 0.5279802601218364 H
atom_frac 0.0766670338425115 0.2702171235891200 0.7137156216506425 C
atom_frac 0.9287237331420357 0.1544073090107645 0.6813181099043674 C
atom_frac 0.0368953834113839 0.0060745981474213 0.6549050023896966 C
atom_frac 0.1187622468979015 0.8694092760683461 0.6925468113615239 C
atom_frac 0.2449557961754679 0.0766716188757357 0.8521284261126139 C
atom_frac 0.3731030544644938 0.0491979636688598 0.8950934008824445 C
atom_frac 0.3019285683453532 0.9577146684849253 0.9404951402377787 C
atom_frac 0.0973887255063630 0.9024311136866603 0.9400591792197659 C
atom_frac 0.9757898102255071 0.9369696044771272 0.8960342901004308 C
atom_frac 0.4411330035616742 0.9188539842782363 0.9863506326290974 C
atom_frac 0.4365208505586650 0.2277322632893403 0.2092193744193338 C
atom_frac 0.5825280798751606 0.3471985893290467 0.1767386229437946 C
atom_frac 0.4673653193225320 0.4979728602087475 0.1543059130374259 C
atom_frac 0.3904630360739603 0.6280853259679590 0.1949896488635616 C
atom_frac 0.2511917988695699 0.4201989779011867 0.3559577771330851 C
atom_frac 0.1182234622800280 0.4497860065430287 0.3980333450258441 C
atom_frac 0.1865990563177249 0.5429337210250013 0.4433181773205702 C
atom_frac 0.3906188811458761 0.5996663167516161 0.4436826939208416 C
atom_frac 0.5149007150659132 0.5634407231479984 0.4001834604493338 C
atom_frac 0.0455078137444005 0.5823134305354783 0.4888599946497151 C
atom_frac 0.9336159019251937 0.7288187685653967 0.2904791677240226 C
atom_frac 0.0813427221030949 0.8471990107017360 0.3226640174683908 C
atom_frac 0.9670642001996725 0.9975036697919037 0.3458323533899871 C
atom_frac 0.8903812960804059 0.1287149608193516 0.3055756688356226 C
atom_frac 0.7482963225642081 0.9205082150231475 0.1442200812304080 C
atom_frac 0.6163633763897423 0.9492921985754350 0.1019855714432651 C
atom_frac 0.6852809083011308 0.0421918297161312 0.0566245279203841 C
atom_frac 0.8892114150581563 0.0991525803585915 0.0562472384608768 C
atom_frac 0.0125922309416424 0.0635341084267580 0.0998268403666813 C
atom_frac 0.5449491029298982 0.0817976497153410 0.0110735567976548 C
atom_frac 0.5763698029572382 0.7702877391535027 0.7864558552212485 C
atom_frac 0.4280340467656956 0.6545397635238858 0.8188981649955804 C
atom_frac 0.5361642863513366 0.5063571640333180 0.8452705175331444 C
atom_frac 0.6183717514690485 0.3695975727590835 0.8076126803906759 C
atom_frac 0.7451584699751875 0.5763875174380219 0.6479313563120641 C
atom_frac 0.8735289025889372 0.5488090140124273 0.6048884441795507 C
atom_frac 0.8024820144309783 0.4575561185265968 0.5594938349888210 C
atom_frac 0.5978351441770897 0.4025871957956043 0.5599952968621054 C
atom_frac 0.4759915017095153 0.4372432679018488 0.6040992323669983 C
atom_frac 0.9418421679395905 0.4190381487975898 0.5135058630761264 C
atom_frac 0.7666526372779429 0.0929393988429013 0.7187200797181390 N
atom_frac 0.0473633213136040 0.0218103424691805 0.8517206784004399 N
atom_frac 0.7512448734424524 0.4048921681649844 0.2112335475267884 N
atom_frac 0.4474189695310216 0.4752131718427321 0.3564498258608423 N
atom_frac 0.2496474922898102 0.9055603854071566 0.2878049921851086 N
atom_frac 0.9443803578277682 0.9758775674585535 0.1436923973715096 N
atom_frac 0.2662329370371452 0.5930845745011908 0.7815821837320699 N
atom_frac 0.5474923258544422 0.5218332235933546 0.6483977025214074 N
atom_frac 0.0725080892244065 0.2509507881005604 0.7650931814100942 O
atom_frac 0.6927170332474902 0.8751715745899274 0.8120851968625473 O
atom_frac 0.0831283279295150 0.8773223523488483 0.7432297033350251 O
atom_frac 0.2155927908147106 0.7531402455314051 0.6695580531577219 O
atom_frac 0.4404192026667957 0.2358939316510273 0.2603814139053569 O
atom_frac 0.8189694873361050 0.6274900856156338 0.3181809460451390 O
atom_frac 0.4303513407023516 0.6152522299553451 0.2450200850563391 O
atom_frac 0.2887346725374300 0.7462599034005991 0.1740601648057165 O
atom_frac 0.9316857299278000 0.7410234541293763 0.2393995390857597 O
atom_frac 0.3167746130334095 0.1297043600843608 0.1821473543930452 O
atom_frac 0.9288964715333776 0.1148611137877467 0.2554173537841962 O
atom_frac 0.7918207373362448 0.2482114838827627 0.3270274792287323 O
atom_frac 0.5724267272235365 0.7512370352370042 0.7350799901469427 O
atom_frac 0.1928865584102866 0.3754545330798180 0.6881015569296662 O
atom_frac 0.5831153831524603 0.3774114844751253 0.7569583920475367 O
atom_frac 0.7150760590453800 0.2534351728312743 0.8305936462035814 O
