#=======================================================
# FHI-aims file: ./geometry.in
# Created using the Atomic Simulation Environment (ASE)
# Fri Jan 14 15:06:22 2022
#=======================================================
lattice_vector 8.0536258130000000 -0.0009614390000000 0.0007423420000000 
lattice_vector -0.0011609720000000 8.5567593839999994 -1.1890836700000000 
lattice_vector 0.0014015860000000 0.3825480440000000 16.2134424169999996 
atom_frac 0.2982117963726977 0.4281575390223297 0.1004989391388591 K
atom_frac 0.7982332363503203 0.0713844430762904 0.8997509065811469 K
atom_frac 0.7017935251552174 0.5713983085555584 0.8996435828868811 K
atom_frac 0.2017211861808974 0.9281467679218667 0.1003151815116681 K
atom_frac 0.4173838818577167 0.7250587337791501 0.0200972532643888 H
atom_frac 0.9174061217248451 0.7743620636353371 0.9798826089383111 H
atom_frac 0.5825556580700847 0.2744497686257360 0.9798493665921553 H
atom_frac 0.0825868064255886 0.2251544993734740 0.0200929711530833 H
atom_frac 0.5829483972203988 0.7044083083899866 0.0710187040990391 H
atom_frac 0.0829602871509607 0.7951077831542860 0.9289389451398190 H
atom_frac 0.4170197089949425 0.2951573297647841 0.9289308712052102 H
atom_frac 0.9169767815029459 0.2044983737655386 0.0710191541557421 H
atom_frac 0.3050597168230739 0.8074348545623453 0.3072229211660725 H
atom_frac 0.8048602855726940 0.6931904931046732 0.6929314407763343 H
atom_frac 0.6950860563208394 0.1929732464248204 0.6928087851793662 H
atom_frac 0.1952246089283561 0.3069121805201505 0.3070568982521563 H
atom_frac 0.4495647379286538 0.9519671174515668 0.4273938035321975 H
atom_frac 0.9487160412896642 0.5483822973792414 0.5726777771284191 H
atom_frac 0.5508988878205159 0.0482881394074326 0.5726069420586197 H
atom_frac 0.0514520584426776 0.4517923209151036 0.4272960977579671 H
atom_frac 0.6429401544036962 0.8117561770603244 0.5158459577908373 H
atom_frac 0.1423297382776312 0.6881186736854943 0.4840461894958280 H
atom_frac 0.3574303227994661 0.1882398643224620 0.4840710202873949 H
atom_frac 0.8577427707161646 0.3122137483119190 0.5159528319792271 H
atom_frac 0.7012454826442821 0.5319249972617827 0.4771949450921297 H
atom_frac 0.2012598253856126 0.9679169879802031 0.5225506504293093 H
atom_frac 0.2988518329074453 0.4680468874276045 0.5226604469561591 H
atom_frac 0.7986078157002651 0.0324739278672084 0.4774465026062557 H
atom_frac 0.6537952642144020 0.2903321576626965 0.3957311299382765 H
atom_frac 0.1548267144179363 0.2096062382827099 0.6042605986269008 H
atom_frac 0.3458041238113340 0.7096911410366005 0.6042538771009589 H
atom_frac 0.8449626918967399 0.7907012668557413 0.3957199555749255 H
atom_frac 0.4473755627569602 0.0480419620549100 0.2499989639852345 H
atom_frac 0.9474457409499236 0.4519919930930101 0.7500605149983669 H
atom_frac 0.5525714936842262 0.9520678813997920 0.7500639198449972 H
atom_frac 0.0525907251896385 0.5482384105627813 0.2500506799661508 H
atom_frac 0.6280541792289255 0.0544175176398269 0.3138069399288810 H
atom_frac 0.1281678490566236 0.4459751211991902 0.6862704602324426 H
atom_frac 0.3718829549553533 0.9457739739399358 0.6862594652891260 H
atom_frac 0.8718971768774394 0.5542736209484502 0.3138488628517350 H
atom_frac 0.6861092988008793 0.9465457352787536 0.1650656708271185 H
atom_frac 0.1862852881469195 0.5533210298922596 0.8350433156208295 H
atom_frac 0.3137669285658333 0.0532533372648274 0.8350472036184937 H
atom_frac 0.8137225570223166 0.4465896397335598 0.1651616182730037 H
atom_frac 0.8029890525195852 0.1180539779780716 0.1952762333539581 H
atom_frac 0.3030691474356288 0.3818634672943444 0.8046769030673387 H
atom_frac 0.1969492853029067 0.8817573296552936 0.8046938276469787 H
atom_frac 0.6969325227156772 0.6181140675280045 0.1953916941346420 H
atom_frac 0.4161323325286759 0.5833184219405754 0.3232919550715393 C
atom_frac 0.9163569836361418 0.9171103827318208 0.6767206153527069 C
atom_frac 0.5838482933654844 0.4169781711126674 0.6766717540134051 C
atom_frac 0.0836087172437203 0.0830572064335229 0.3232792744918739 C
atom_frac 0.3930026937517113 0.7489227716025652 0.3444950154164488 C
atom_frac 0.8927871573274472 0.7515601635219796 0.6555748551533895 C
atom_frac 0.6071915001715525 0.2513962907495326 0.6554894517115528 C
atom_frac 0.1072679449696068 0.2485963370435584 0.3444118819236408 C
atom_frac 0.4719653967056772 0.8273811871112784 0.4122933875975505 C
atom_frac 0.9714515809228388 0.6729555786708445 0.5877301744342701 C
atom_frac 0.5283541968159895 0.1728554602124532 0.5876788618009456 C
atom_frac 0.0286631265818542 0.3272483026606920 0.4122686695995980 C
atom_frac 0.5820525891679084 0.7501178573468650 0.4616978072968933 C
atom_frac 0.0816062697828883 0.7499540350184758 0.5381866041834725 C
atom_frac 0.4182632698445373 0.2499755747286515 0.5382102797778998 C
atom_frac 0.9184811304593481 0.2503198439812876 0.4618149075969740 C
atom_frac 0.6131932715748788 0.5915001558147139 0.4406114255829933 C
atom_frac 0.1131690217897301 0.9084826781606169 0.5592006727364874 C
atom_frac 0.3869264015709036 0.4085501989821126 0.5592663732384506 C
atom_frac 0.8867830421870622 0.0918243508143703 0.4407909409954270 C
atom_frac 0.5362921874433511 0.5073022281805279 0.3726917780725784 C
atom_frac 0.0365181661056297 0.9928450148793716 0.6271609953974815 C
atom_frac 0.4637207139379455 0.4928436044465840 0.6271936446936691 C
atom_frac 0.9633742899125722 0.0074026825310298 0.3728244194074861 C
atom_frac 0.5788773849692178 0.3457801904195890 0.3493121144281729 C
atom_frac 0.0793800610127491 0.1542869421112911 0.6505590167049319 C
atom_frac 0.4209877435975216 0.6542890857533904 0.6505862036667195 C
atom_frac 0.9204664603068055 0.8460076462824021 0.3494230546645837 C
atom_frac 0.5696260185820564 0.1038238440147126 0.2609397974436760 C
atom_frac 0.0697368142982526 0.3962931648922776 0.7390752472020097 C
atom_frac 0.4303421461187896 0.8962318481454973 0.7390796405795964 C
atom_frac 0.9302785370067922 0.6038612908805945 0.2610094085056430 C
atom_frac 0.6766378503735877 0.0730321672594769 0.1831714070581256 C
atom_frac 0.1767564986470020 0.4268634760627635 0.8168435076468795 C
atom_frac 0.3232694382719714 0.9267998777708044 0.8168575360435071 C
atom_frac 0.8232538514118417 0.5730795751097588 0.1832645006557954 C
atom_frac 0.6024721607588363 0.1451364318166242 0.1092718051503283 C
atom_frac 0.1025740792492300 0.3545973485781460 0.8907232283028390 C
atom_frac 0.3974115212768368 0.8545465819819924 0.8907184544278761 C
atom_frac 0.8974486715862681 0.6451512908668847 0.1093156286754464 C
atom_frac 0.5390228916078286 0.2685315811596638 0.2804565657159301 N
atom_frac 0.0392184494164169 0.2316433198046184 0.7193385510231490 N
atom_frac 0.4609775895735808 0.7315987497425738 0.7194357387703859 N
atom_frac 0.9606938589450491 0.7685545873093600 0.2806888524241343 N
atom_frac 0.3334643779097277 0.5077115024438469 0.2654972214599168 O
atom_frac 0.8341725006621558 0.9929881424003217 0.7346303417256193 O
atom_frac 0.6662207350058367 0.4927319416995175 0.7345531340982844 O
atom_frac 0.1657273788284499 0.0070906909820820 0.2653679760166625 O
atom_frac 0.4469630436599203 0.1410139495578946 0.1003201876189053 O
atom_frac 0.9470349678718222 0.3584437204106338 0.8996094830194037 O
atom_frac 0.5529491757394781 0.8584496978453302 0.8996101916354248 O
atom_frac 0.0529778267253818 0.6411189545690519 0.1004064843153074 O
atom_frac 0.7021575827917773 0.2062972178971663 0.0606967593058343 O
atom_frac 0.2022634769071843 0.2936489586318488 0.9393355612611243 O
atom_frac 0.2977000374696813 0.7935142115072933 0.9393226560947096 O
atom_frac 0.7977592754206952 0.7061192083798672 0.0607108955782110 O
atom_frac 0.4602637214096745 0.6926922742823010 0.0730663709855151 O
atom_frac 0.9602528851989475 0.8066696722308182 0.9268768785664959 O
atom_frac 0.5397366486921413 0.3066735254685399 0.9268309237165225 O
atom_frac 0.0396518722170711 0.1927065008277750 0.0730495528047257 O
