#=======================================================
# FHI-aims file: ./geometry.in
# Created using the Atomic Simulation Environment (ASE)
# Wed Feb  9 14:46:24 2022
#=======================================================
lattice_vector 7.1017267100000003 -0.1742953000000000 0.3833834400000000 
lattice_vector 2.8105431799999998 8.2359408199999997 2.1973726899999999 
lattice_vector 0.1278034400000000 0.1806214300000000 15.9904717800000000 
atom_frac 0.9790718699999998 0.3043850000000001 0.1399098400000000 Zn
atom_frac 0.0209282899999999 0.6956145800000001 0.8600901699999999 Zn
atom_frac 0.2251370600000001 0.3865316100000000 0.0192062400000000 H
atom_frac 0.7748631300000000 0.6134680900000001 0.9807938899999997 H
atom_frac 0.2864912100000000 0.1987780200000000 0.0827975700000000 H
atom_frac 0.7135089999999998 0.8012215000000000 0.9172027999999999 H
atom_frac 0.9148939799999999 0.2207614500000000 0.4674362399999999 H
atom_frac 0.0851057400000000 0.7792388000000000 0.5325636599999999 H
atom_frac 0.8053532500000000 0.2472403800000000 0.3180492599999999 H
atom_frac 0.1946467799999999 0.7527597700000002 0.6819506099999999 H
atom_frac 0.3227754700000000 0.3323127900000000 0.2125690100000000 H
atom_frac 0.6772246699999999 0.6676872300000000 0.7874310000000000 H
atom_frac 0.4508414700000000 0.3185530200000000 0.3555958399999999 H
atom_frac 0.5491583100000000 0.6814473900000000 0.6444041499999998 H
atom_frac 0.6039187900000000 0.4294026100000000 0.5744329999999999 H
atom_frac 0.3960812000000000 0.5705974499999998 0.4255670700000000 H
atom_frac 0.4835468499999999 0.4355060300000000 0.6750960599999999 H
atom_frac 0.5164531600000000 0.5644939800000000 0.3249040000000000 H
atom_frac 0.3394447299999999 0.5023436799999998 0.5772031999999999 H
atom_frac 0.6605552600000000 0.4976564700000000 0.4227968599999999 H
atom_frac 0.6742079000000000 -0.0009226600000000 0.6626008000000000 H
atom_frac 0.3257919700000000 1.0009227900000000 0.3373990099999999 H
atom_frac 0.6420249499999998 0.1188112000000000 0.7386536999999999 H
atom_frac 0.3579751000000000 0.8811885800000000 0.2613462799999999 H
atom_frac 0.7830917299999999 0.1607592000000000 0.6437741099999998 H
atom_frac 0.2169081200000000 0.8392409099999999 0.3562258300000000 H
atom_frac 0.1714775500000000 0.4357478900000000 0.7031265199999999 H
atom_frac 0.8285224400000000 0.5642521900000000 0.2968735000000000 H
atom_frac 0.2673659400000000 0.2550179600000000 0.7861851299999999 H
atom_frac 0.7326341100000000 0.7449820800000001 0.2138148500000000 H
atom_frac 1.0300717100000001 0.2983106899999999 0.7383078299999999 H
atom_frac -0.0300717100000000 0.7016893900000001 0.2616921899999999 H
atom_frac 0.1346165000000000 0.0275342000000000 0.7105111999999998 H
atom_frac 0.8653833399999999 0.9724659900000001 0.2894887300000000 H
atom_frac 0.3752080800000000 -0.0174368300000000 0.7532210099999999 H
atom_frac 0.6247918099999997 1.0174368700000003 0.2467789300000000 H
atom_frac 0.3453918200000000 0.9674096800000000 0.6454157100000000 H
atom_frac 0.6546079800000000 0.0325904800000000 0.3545842200000000 H
atom_frac 0.4341459899999999 0.6717765500000000 0.0158618500000000 H
atom_frac 0.5658538200000000 0.3282233299999999 0.9841380999999999 H
atom_frac 0.5083913599999998 0.7753414000000000 0.0805680400000000 H
atom_frac 0.4916093100000000 0.2246581600000000 0.9194318299999998 H
atom_frac 0.2918659500000000 0.6730167999999999 0.2016312799999999 H
atom_frac 0.7081343099999999 0.3269832800000000 0.7983687399999999 H
atom_frac 0.2108552300000001 0.5834401099999998 0.1303203600000000 H
atom_frac 0.7891449599999999 0.4165597400000000 0.8696797700000000 H
atom_frac 0.1014436599999999 0.8592877500000001 0.0229793000000000 H
atom_frac 0.8985568700000000 0.1407107800000000 0.9770205999999999 H
atom_frac 0.9594325800000000 0.8364761599999999 0.1175478500000000 H
atom_frac 0.0405676700000000 0.1635242100000000 0.8824520999999999 H
atom_frac 0.1939843500000000 0.2678389600000000 0.4241215900000000 C
atom_frac 0.8060153699999999 0.7321614099999999 0.5758783900000000 C
atom_frac 0.0106812800000000 0.2459082900000000 0.4128923500000000 C
atom_frac 0.9893185200000001 0.7540919900000002 0.5871075899999999 C
atom_frac 0.9492343200000000 0.2590356100000000 0.3302203100000000 C
atom_frac 0.0507656900000000 0.7409645000000000 0.6697796299999998 C
atom_frac 0.2363459800000000 0.3089464200000000 0.2708199000000000 C
atom_frac 0.7636540600000000 0.6910536700000000 0.7291800899999998 C
atom_frac 0.3076034600000000 0.3001744800000000 0.3508941099999999 C
atom_frac 0.6923963600000000 0.6998258600000000 0.6491058799999999 C
atom_frac 0.2639106800000000 0.2553136300000001 0.5091367499999999 C
atom_frac 0.7360891699999998 0.7446866000000000 0.4908632199999999 C
atom_frac 0.4697626099999999 0.2396839700000000 0.6224776200000000 C
atom_frac 0.5302372600000000 0.7603161700000001 0.3775223699999999 C
atom_frac 0.4728116999999999 0.4133180100000001 0.6111214200000000 C
atom_frac 0.5271882500000000 0.5866820700000002 0.3888786299999999 C
atom_frac 0.6537806600000000 0.1217124000000000 0.6692751999999998 C
atom_frac 0.3462192400000000 0.8782876500000000 0.3307247300000000 C
atom_frac 0.2732446800000000 0.2138388100000000 0.6600494599999999 C
atom_frac 0.7267552500000000 0.7861613099999999 0.3399505100000000 C
atom_frac 0.1803583900000000 0.3074867200000000 0.7253744999999999 C
atom_frac 0.8196415999999999 0.6925133600000000 0.2746254900000000 C
atom_frac 0.2836735100000000 0.0366577700000000 0.6937608099999999 C
atom_frac 0.7163263600000002 0.9633423599999998 0.3062391500000000 C
atom_frac 0.6212521400000000 0.5190520999999999 0.1221395600000000 C
atom_frac 0.3787474500000000 0.4809471200000000 0.8778601499999998 C
atom_frac 0.4574808499999999 0.6690111500000000 0.0840551400000000 C
atom_frac 0.5425192900000000 0.3309885900000000 0.9159447999999999 C
atom_frac 0.2653482099999999 0.6850319600000000 0.1325028800000000 C
atom_frac 0.7346520100000000 0.3149679200000000 0.8674971799999999 C
atom_frac 0.1060223900000000 0.8421115300000001 0.0940095200000000 C
atom_frac 0.8939778799999999 0.1578884200000000 0.9059902700000000 C
atom_frac 0.1343808800000000 -0.0058766800000000 0.1084047600000000 C
atom_frac 0.8656185899999999 1.0058780400000003 0.8915932199999997 C
atom_frac 0.0594327200000000 0.2897951400000000 0.2602035000000000 N
atom_frac 0.9405674499999999 0.7102047799999999 0.7397964699999999 N
atom_frac 0.4559362100000000 0.2186905400000000 0.5328410099999998 N
atom_frac 0.5440636300000000 0.7813096500000001 0.4671589299999999 N
atom_frac 0.1478961400000000 0.2755521000000000 0.5784089799999999 N
atom_frac 0.8521037299999998 0.7244481100000000 0.4215909800000001 N
atom_frac 0.6051449200000000 0.1888355800000000 0.4856759800000000 O
atom_frac 0.3948549900000000 0.8111644800000000 0.5143239699999999 O
atom_frac 0.9620082899999999 0.3214750100000000 0.5795102600000001 O
atom_frac 0.0379914699999999 0.6785253400000001 0.4204897100000000 O
atom_frac 0.6101860499999999 0.4235776700000000 0.1922603700000000 O
atom_frac 0.3898141600000001 0.5764226699999999 0.8077398199999999 O
atom_frac 0.7815406499999998 0.4962475299999999 0.0760334900000000 O
atom_frac 0.2184598700000000 0.5037525800000000 0.9239667999999999 O
atom_frac 0.3017013900000000 0.0151653300000000 0.1007729600000000 O
atom_frac 0.6982988700000000 0.9848346899999998 0.8992274199999998 O
atom_frac 0.9756436899999998 0.0966818900000000 0.1256855500000000 O
atom_frac 0.0243563900000000 0.9033174100000000 0.8743146799999999 O
atom_frac 0.2328915600000000 0.3192295200000000 0.0809948700000000 O
atom_frac 0.7671083799999999 0.6807701900000001 0.9190052100000000 O
