#=======================================================
# FHI-aims file: ./geometry.in
# Created using the Atomic Simulation Environment (ASE)
# Wed Feb  9 14:46:31 2022
#=======================================================
lattice_vector 6.9743736900000002 0.0768564800000000 -0.7782952300000000 
lattice_vector -1.8684758900000000 6.7084720500000001 -0.7274450500000000 
lattice_vector -0.3878905900000000 -0.4889881900000000 16.1027779100000004 
atom_frac 0.0986932100000000 0.8585199300000000 0.9429484799999999 Zn
atom_frac 0.1408285100000000 0.9003697500000000 0.5583244799999999 Zn
atom_frac 0.9013126800000001 0.1414730000000000 0.0570469400000000 Zn
atom_frac 0.8591666900000001 0.0996382400000000 0.4416712000000000 Zn
atom_frac 0.1430871800000000 0.5016004700000000 0.8299303900000000 H
atom_frac 0.4924678800000000 0.8496296299999999 0.6718452999999999 H
atom_frac 0.8568810400000001 0.4983919799999999 0.1700597800000000 H
atom_frac 0.5075239100000001 0.1503400400000000 0.3281451000000000 H
atom_frac 0.3876562900000000 0.2938562800000000 0.8342546599999999 H
atom_frac 0.7006130500000001 0.6056498800000000 0.6711022600000000 H
atom_frac 0.6123422100000000 0.7061711600000000 0.1657681100000000 H
atom_frac 0.2994108900000000 0.3943498600000000 0.3289205299999999 H
atom_frac 0.8481895200000000 0.4782621900000000 0.9167397099999999 H
atom_frac 0.5220262300000000 0.1549849800000000 0.5845356199999999 H
atom_frac 0.1518190400000000 0.5217363399999999 0.0832608200000000 H
atom_frac 0.4779740600000000 0.8450260300000000 0.4154654000000000 H
atom_frac 0.7623683600000000 0.6475411900000001 0.9705603900000001 H
atom_frac 0.3504197499999999 0.2371656500000000 0.5300164100000000 H
atom_frac 0.2376430700000000 0.3524611499999999 0.0294393600000000 H
atom_frac 0.6495841500000000 0.7628482900000000 0.4699838800000000 H
atom_frac 0.9060620200000000 0.1220333700000000 0.8602648399999999 C
atom_frac 0.8813025300000000 0.0981515000000000 0.6397799699999999 C
atom_frac 0.0939462300000000 0.8779660699999999 0.1397334100000000 C
atom_frac 0.1186991500000000 0.9018597300000000 0.3602185500000000 C
atom_frac 0.9822889400000001 0.0119375800000000 0.7933150299999999 C
atom_frac 0.9892203500000001 0.0188354800000000 0.7070756900000000 C
atom_frac 0.0177115900000000 0.9880598400000000 0.2066815800000000 C
atom_frac 0.0107775700000000 0.9811664500000000 0.2929210500000000 C
atom_frac 0.1700343200000000 0.8274733699999999 0.7506718000000000 C
atom_frac 0.8299537700000001 0.1725156800000000 0.2493202800000000 C
atom_frac 0.3003096500000000 0.6941553099999999 0.7511079600000000 C
atom_frac 0.6996696200000000 0.3058253100000000 0.2488812100000000 C
atom_frac 0.2704944100000000 0.5361036500000000 0.7970456499999999 C
atom_frac 0.4587497099999999 0.7237155299999999 0.7059614899999999 C
atom_frac 0.7294839400000001 0.4638899000000000 0.2029504800000000 C
atom_frac 0.5412420900000001 0.2762646200000000 0.2940347200000000 C
atom_frac 0.4016663799999999 0.4155053800000000 0.7968333499999999 C
atom_frac 0.5781754000000001 0.5914315200000000 0.7076792000000000 C
atom_frac 0.5983301700000000 0.5845072300000000 0.2031813500000000 C
atom_frac 0.4218340100000000 0.4085664800000000 0.2923354500000000 C
atom_frac 0.5001791200000000 0.8872128700000000 -0.0009852100000000 C
atom_frac 0.1123561400000000 0.5003023100000000 0.5015749899999999 C
atom_frac 0.4998254500000000 0.1127748300000000 1.0009794199999997 C
atom_frac 0.8876348700000000 0.4997049500000000 0.4984188299999999 C
atom_frac 0.0922975400000000 0.8872487800000000 0.8182708100000000 N
atom_frac 0.1117474300000000 0.9065232000000000 0.6827797299999999 N
atom_frac 0.9076969600000000 0.1127409900000000 0.1817231200000000 N
atom_frac 0.8882429300000000 0.0934729800000000 0.3172143499999999 N
atom_frac 0.5479228700000000 0.4426293700000000 0.7517204500000000 N
atom_frac 0.4520941100000000 0.5573892700000000 0.2483054699999999 N
atom_frac 0.9080157600000001 0.0434855900000000 0.9288311999999999 O
atom_frac 0.9552011200000001 0.0886742900000000 0.5704289700000000 O
atom_frac 0.0919921300000000 0.9565108299999999 0.0711664600000000 O
atom_frac 0.0447978300000000 0.9113369400000000 0.4295690500000000 O
atom_frac 0.8556588600000000 0.2761056300000000 0.8504137799999999 O
atom_frac 0.7334691400000001 0.1591658100000000 0.6497462299999999 O
atom_frac 0.1443573400000000 0.7238987500000000 0.1495866400000000 O
atom_frac 0.2665362200000000 0.8408503999999999 0.3502541800000000 O
atom_frac 0.3371339700000000 0.7584409200000000 0.9700265599999999 O
atom_frac 0.2410571800000000 0.6631472600000001 0.5315300699999999 O
atom_frac 0.6628696500000000 0.2415476499999999 0.0299682100000000 O
atom_frac 0.7589346700000000 0.3368590900000000 0.4684643400000000 O
atom_frac 0.6608788400000000 0.8508758199999998 0.0258091900000000 O
atom_frac 0.1498103200000000 0.3404630599999999 0.4747725099999999 O
atom_frac 0.3391261400000000 0.1491118100000000 0.9741839499999999 O
atom_frac 0.8501805200000001 0.6595445800000000 0.5252203100000000 O
atom_frac 0.8754450300000001 0.6195102100000000 0.9458024499999999 O
atom_frac 0.3800810600000000 0.1251861300000000 0.5559070600000000 O
atom_frac 0.1245769200000000 0.3804814599999999 0.0542085100000000 O
atom_frac 0.6199122200000001 0.8748392300000001 0.4441049500000000 O
