#=======================================================
# FHI-aims file: ./geometry.in
# Created using the Atomic Simulation Environment (ASE)
# Wed Feb  9 14:46:32 2022
#=======================================================
lattice_vector 9.0168767600000006 -0.4938943900000000 2.0953003500000000 
lattice_vector 2.5464863700000002 9.2883434999999999 2.7484153099999999 
lattice_vector 0.4140421700000000 0.2513414100000000 11.8151176499999995 
atom_frac 0.4403595000000000 0.3948136600000001 0.8853361900000002 Co
    initial_moment         3.000000
atom_frac 0.5596384500000001 0.6051881900000000 0.1146640999999999 Co
    initial_moment         1.000000
atom_frac 0.3029947700000000 0.2242312600000000 0.5919944200000000 H
atom_frac 0.6970033200000002 0.7757643500000000 0.4079992899999999 H
atom_frac 0.3413533400000000 0.7699586100000000 0.6612118100000000 H
atom_frac 0.6586614000000000 0.2300332300000000 0.3387915900000000 H
atom_frac 0.4014128800000000 0.9450961400000002 0.9328264899999998 H
atom_frac 0.5985798700000000 0.0549071200000000 0.0671747700000000 H
atom_frac 0.1716228900000001 0.5986601700000000 -0.0227173800000000 H
atom_frac 0.8283724500000000 0.4013431100000000 1.0227171700000000 H
atom_frac 0.9622808600000000 0.5787610500000000 0.1590921000000000 H
atom_frac 0.0377130100000000 0.4212395200000000 0.8409072000000000 H
atom_frac 0.1505300500000000 0.1277124800000000 0.2594768500000000 H
atom_frac 0.8494708900000001 0.8722895800000002 0.7405229199999999 H
atom_frac 0.3515216800000001 0.1653821100000000 0.0754997300000000 H
atom_frac 0.6484789500000000 0.8346222400000000 0.9245010200000000 H
atom_frac 0.8975801000000001 0.2264608400000000 0.3708272499999999 H
atom_frac 0.1024194500000001 0.7735393600000000 0.6291728799999999 H
atom_frac 0.8105228000000000 0.4090841200000001 0.3157554400000000 H
atom_frac 0.1894740000000000 0.5909154900000000 0.6842442800000001 H
atom_frac 0.0674508700000000 0.3035667700000000 0.4609984200000000 H
atom_frac 0.9325487200000000 0.6964385000000000 0.5389987500000000 H
atom_frac 0.9909074200000002 0.4845909700000001 0.3986350599999999 H
atom_frac 0.0090860700000000 0.5154132300000001 0.6013631000000000 H
atom_frac 0.6825004100000001 0.5525881499999999 0.4513197499999999 H
atom_frac 0.3174973999999999 0.4474128800000000 0.5486827300000000 H
atom_frac 0.4820214000000000 0.5611484000000000 0.6387593600000000 H
atom_frac 0.5179788600000000 0.4388515200000000 0.3612441100000000 H
atom_frac 0.7425623500000001 0.2283735900000000 0.8489980400000000 H
atom_frac 0.2574398100000000 0.7716248000000001 0.1510026400000000 H
atom_frac 0.9584203100000002 0.2093929300000001 0.6721114800000000 H
atom_frac 0.0415798799999999 0.7906061500000001 0.3278870600000000 H
atom_frac 0.3532344200000000 0.0980433100000000 0.7665440000000001 C
atom_frac 0.6467672199999999 0.9019592200000002 0.2334513700000000 C
atom_frac 0.3219445100000000 0.1177698900000000 0.6530067400000000 C
atom_frac 0.6780577300000000 0.8822276600000001 0.3469894900000000 C
atom_frac 0.3185846100000000 0.9984464300000001 0.6177082900000002 C
atom_frac 0.6814199400000001 0.0015479900000000 0.3822906999999999 C
atom_frac 0.3429995900000001 0.8613284700000000 0.6923556700000001 C
atom_frac 0.6570111199999999 0.1386673000000000 0.3076441100000000 C
atom_frac 0.3714913400000001 0.8422370700000001 0.8069231699999999 C
atom_frac 0.6285154300000001 0.1577637500000000 0.1930768499999999 C
atom_frac 0.3772837000000001 0.9609386799999999 0.8433415200000000 C
atom_frac 0.6227173600000000 0.0390652200000000 0.1566567800000000 C
atom_frac 0.3638595299999999 0.2251733100000000 0.8015469000000000 C
atom_frac 0.6361562700000000 0.7748302900000000 0.1984404999999999 C
atom_frac 0.4004689000000001 0.6958942300000001 0.8895274499999999 C
atom_frac 0.5995339400000002 0.3041079100000000 0.1104759000000000 C
atom_frac 0.1644533400000000 0.4962711700000000 0.0431057400000000 C
atom_frac 0.8355432600000000 0.5037316299999999 0.9568937800000000 C
atom_frac 0.0484556800000000 0.4843282800000001 0.1442227400000000 C
atom_frac 0.9515405600000001 0.5156736600000000 0.8557765000000001 C
atom_frac 0.0386661000000000 0.3513449700000000 0.2255749900000000 C
atom_frac 0.9613314100000000 0.6486566000000000 0.7744244700000001 C
atom_frac 0.1493547900000000 0.2349228100000000 0.1992594400000000 C
atom_frac 0.8506443299999999 0.7650796000000001 0.8007405599999999 C
atom_frac 0.2632945200000000 0.2547948700000001 0.0975216000000000 C
atom_frac 0.7367047300000001 0.7452086800000000 0.9024785800000000 C
atom_frac 0.9174889500000001 0.3367805300000000 0.3373807100000000 C
atom_frac 0.0825085499999999 0.6632203900000001 0.6626190100000001 C
atom_frac 0.9624288300000001 0.3771521400000001 0.4367574200000001 C
atom_frac 0.0375685700000000 0.6228505700000000 0.5632414300000000 C
atom_frac 0.8384829699999999 0.3803569400000000 0.5463224000000001 C
atom_frac 0.1615160400000000 0.6196436000000000 0.4536779700000000 C
atom_frac 0.7014542100000001 0.4792741100000001 0.5386068699999998 C
atom_frac 0.2985447199999999 0.5207265900000001 0.4613951500000000 C
atom_frac 0.5895622200000000 0.4842101600000000 0.6412036900000001 C
atom_frac 0.4104381300000000 0.5157900000000000 0.3587991100000000 C
atom_frac 0.7358862800000000 0.2982357500000000 0.7586537200000000 C
atom_frac 0.2641150400000001 0.7017634400000001 0.2413473000000000 C
atom_frac 0.8538259800000000 0.2889874200000000 0.6597817499999999 C
atom_frac 0.1461741900000000 0.7110121100000001 0.3402181300000000 C
atom_frac 0.2915113300000000 0.0187323400000000 0.4968399400000000 N
atom_frac 0.7084710600000000 0.9812608999999999 0.5031660300000000 N
atom_frac 0.2726947600000000 0.3836975700000000 0.0192561100000000 N
atom_frac 0.7273032600000001 0.6163058300000002 0.9807436599999999 N
atom_frac 0.6054648600000000 0.3949316500000000 0.7500288600000000 N
atom_frac 0.3945366600000000 0.6050678300000000 0.2499735800000000 N
atom_frac 0.4421327500000001 0.2029127900000000 0.8830988199999998 O
atom_frac 0.5578605200000000 0.7970867500000000 0.1169041400000000 O
atom_frac 0.3018106700000000 0.3480039500000001 0.7508145299999999 O
atom_frac 0.6981886700000001 0.6519991700000001 0.2491859500000000 O
atom_frac 0.4087628100000000 0.6857082000000000 0.9960933500000000 O
atom_frac 0.5912314100000000 0.3142973400000000 0.0039115100000000 O
atom_frac 0.4110291600000001 0.5945197900000000 0.8413030700000003 O
atom_frac 0.5889782200000000 0.4054813100000000 0.1587006500000000 O
atom_frac 0.2724672800000000 0.9153429900000001 0.4704604000000001 O
atom_frac 0.7275284800000000 0.0846414100000000 0.5295481600000002 O
atom_frac 0.2892914700000000 0.1390554400000000 0.4277368700000000 O
atom_frac 0.7107275700000000 0.8609245900000001 0.5722560799999999 O
