#=======================================================
# FHI-aims file: ./geometry.in
# Created using the Atomic Simulation Environment (ASE)
# Tue Nov 30 12:20:15 2021
#=======================================================
lattice_vector 6.8606910990000003 0.0552943480000000 0.4014728710000000 
lattice_vector -0.0626905190000000 9.7104570480000003 4.2019231430000001 
lattice_vector 0.0379362380000000 -0.0615879210000000 12.8030276819999997 
atom_frac 0.5000012222779661 0.0000021229008240 0.9999989433376300 Ni
atom_frac 0.4616262575578247 0.1056687356047235 0.1800197369455532 P
atom_frac 0.5383698109579385 0.8943299107794118 0.8199821040388360 P
atom_frac 0.6020654417937051 0.3636154046127161 0.0474538593409335 H
atom_frac 0.3979335394716729 0.6363821870760944 0.9525466743244591 H
atom_frac 0.7970985349671551 0.2973160906365350 0.1402900349258900 H
atom_frac 0.2029004532897858 0.7026825336331795 0.8597109406949244 H
atom_frac 0.7182334377251324 0.5477753300099761 0.1044533337419154 H
atom_frac 0.2817611687874333 0.4522233299156894 0.8955493297084089 H
atom_frac 0.6843477461139359 0.4377207710556448 0.2510120252300111 H
atom_frac 0.3156483111450470 0.5622768477162339 0.7489901533672523 H
atom_frac 0.4796000415199657 0.4972390478308384 0.1646035128611346 H
atom_frac 0.5203945622662688 0.5027585745452754 0.8353979290654723 H
atom_frac 0.0502830185711431 0.0287125163886941 0.2405020922819148 H
atom_frac 0.9497144964258127 0.9712850938102942 0.7595000434177169 H
atom_frac 0.8798267846524084 0.8750721627188012 0.4177783236366609 H
atom_frac 0.1201678276642824 0.1249254497200241 0.5822215591533534 H
atom_frac 0.4222405668481243 0.7895024200524999 0.5857781115044960 H
atom_frac 0.5777526141579231 0.2105003738010253 0.4142255830968509 H
atom_frac 0.5960489606995836 0.9409354363656773 0.4038337067431783 H
atom_frac 0.4039456597960935 0.0590652887217971 0.5961698406179821 H
atom_frac 0.8164137319060034 0.6530321615209117 0.7140007277623752 H
atom_frac 0.1835823350708665 0.3469675273814231 0.2860031143140276 H
atom_frac 0.8080823463437314 0.6717202839242234 0.5685100457916263 H
atom_frac 0.1919151601227682 0.3282773362120607 0.4314936490446045 H
atom_frac 0.7792817403055423 0.8190697578703805 0.6056638744893660 H
atom_frac 0.2207099507310772 0.1809289192010581 0.3943388747562366 H
atom_frac 0.5709800956655896 0.7631790711838063 0.2178927711115436 H
atom_frac 0.4290277139028973 0.2368235773170895 0.7821011396938502 H
atom_frac 0.0190421349155301 0.5708445250122481 0.3699453282742411 H
atom_frac 0.9809641804183117 0.4291540116752087 0.6300484167437048 H
atom_frac 0.8694981769173041 0.7238014996173658 0.1891882028661699 H
atom_frac 0.1305110888502625 0.2762021828288397 0.8108076661336057 H
atom_frac 0.0785432063387574 0.8951297358530467 0.0349394449106840 H
atom_frac 0.9214588014314985 0.1048791573307568 0.9650596279226775 H
atom_frac 0.6480735362793483 0.3390471705850261 0.1342437075674923 C
atom_frac 0.3519240210184051 0.6609535125134441 0.8657558561569091 C
atom_frac 0.6315294981603828 0.4621193949145803 0.1661128845266547 C
atom_frac 0.3684665676290492 0.5378782139200027 0.8338877349340166 C
atom_frac 0.3340194018559686 0.9960891609520314 0.3102945859795911 C
atom_frac 0.6659766581293454 0.0039094953693919 0.6897088141413974 C
atom_frac 0.1326814120874573 0.9765450631666539 0.3158967403581203 C
atom_frac 0.8673160986442739 0.0234525520009825 0.6841061749098073 C
atom_frac 0.0360137945233063 0.8896777053117406 0.4166158373816272 C
atom_frac 0.9639808119892592 0.1103209546139254 0.5833868260686969 C
atom_frac 0.1412896809103046 0.8219664598123442 0.5136157086617956 C
atom_frac 0.8587049298674855 0.1780321951446808 0.4863861752202325 C
atom_frac 0.3441597761357543 0.8406116877387219 0.5086026245777263 C
atom_frac 0.6558362881147844 0.1593869636140610 0.4913999959749660 C
atom_frac 0.4389875383237650 0.9262124540963087 0.4077062860523669 C
atom_frac 0.5610100019130826 0.0737882488767454 0.5922963959452261 C
atom_frac 0.8531913313386212 0.7198092417083614 0.6253398738387190 C
atom_frac 0.1468018089055150 0.2801894367274826 0.3746643916458369 C
atom_frac 0.4156238043801677 0.7506520470359772 0.2141021778053798 C
atom_frac 0.5843825136799979 0.2493475272010314 0.7858927887362839 C
atom_frac 0.3092988064344127 0.6535786832660548 0.3065569818859971 C
atom_frac 0.6907089891509629 0.3464219000730323 0.6934360450085606 C
atom_frac 0.1078185657847257 0.6429678237156792 0.2991364611010355 C
atom_frac 0.8921906564946055 0.3570307057632931 0.7008587572582387 C
atom_frac 0.0246462993274292 0.7286375432036037 0.1994931423443306 C
atom_frac 0.9753614256394628 0.2713589594983360 0.8005059124115236 C
atom_frac 0.1402416243760456 0.8250848435807964 0.1130985364722080 C
atom_frac 0.8597617836608367 0.1749168229010890 0.8868989589121696 C
atom_frac 0.4102547684870145 0.5711733913954333 0.4089999083299459 C
atom_frac 0.5897544650490970 0.4288261656958028 0.5909949724164392 C
atom_frac 0.2918439603504552 0.1656066279888648 0.0474666039680471 S
atom_frac 0.7081550434284908 0.8343930189244584 0.9525332544715895 S
atom_frac 0.7015470946423791 0.0121117607247143 0.1484434177044349 S
atom_frac 0.2984504696469373 0.9878899549546528 0.8515565879753881 S
atom_frac 0.3332864392800090 0.8368177282470483 0.1203395630963940 N
atom_frac 0.6667169998008902 0.1631859835220553 0.8796556979256351 N
atom_frac 0.6074343443149531 0.5779925918068756 0.4039740653782645 N
atom_frac 0.3925734722450898 0.4220110892749247 0.5960202873825510 N
atom_frac 0.3013490957563079 0.4938964945390223 0.5037286150502140 N
atom_frac 0.6986587095469616 0.5061061589305210 0.4962660753234829 N
atom_frac 0.5195678764912799 0.2319309440718769 0.2139159314107175 O
atom_frac 0.4804296652844685 0.7680687163829844 0.7860847494948615 O
atom_frac 0.0606644382749337 0.7365163193062824 0.6161026987075716 O
atom_frac 0.9393272977888146 0.2634864682141895 0.3838987000865187 O
