#=======================================================
# FHI-aims file: ./geometry.in
# Created using the Atomic Simulation Environment (ASE)
# Fri Jan 14 15:06:22 2022
#=======================================================
lattice_vector -6.9507970129999999 -0.0000319990000000 0.0000588490000000 
lattice_vector 0.0000059490000000 9.1641657359999993 -0.0108487880000000 
lattice_vector 0.0000278460000000 -0.0155110520000000 -9.1640785690000008 
atom_frac 0.7500013146404639 0.5000029107876357 0.5000011377847499 Fe
atom_frac 0.2499953450072852 0.5000033344806738 0.4999935615240998 Fe
atom_frac 0.8114230816655450 0.5009292768479980 0.1491162767342473 H
atom_frac 0.8114215754362916 0.4990758856379359 0.8508878796878320 H
atom_frac 0.3114498712996009 0.1491100769753899 0.5009004048074884 H
atom_frac 0.3114519033700772 0.8508970261900687 0.4990896894596588 H
atom_frac 0.1885477491778289 0.5009052544405747 0.1491024842972379 H
atom_frac 0.1885505590816550 0.4990857127523399 0.8508871418123645 H
atom_frac 0.6885798780546608 0.8508885225886331 0.4990899388964039 H
atom_frac 0.6885778461034633 0.1491081686227460 0.5009290180832835 H
atom_frac 0.4999836953084439 0.4999137577153905 0.0790746128711817 C
atom_frac 0.4999870680332349 0.5000826721615541 0.9209233715427557 C
atom_frac 0.0000150185907728 0.0790747679236006 0.4999195610334439 C
atom_frac 0.0000143011016789 0.9209269168849943 0.5000883640892794 C
atom_frac 0.6587701832317875 0.4998896464967757 0.1741010358166761 C
atom_frac 0.6587684785591393 0.5001067989526931 0.8258957142543224 C
atom_frac 0.1587983296639734 0.1741040968026581 0.4998833753109793 C
atom_frac 0.1587974497553617 0.8258986781553619 0.5001134932327886 C
atom_frac 0.3412066008255933 0.4998896272454375 0.1741000877573171 C
atom_frac 0.3411991414087296 0.5001122301633885 0.8258914860539974 C
atom_frac 0.8412299810503612 0.8258999754021019 0.5001167828595923 C
atom_frac 0.8412279836267443 0.1741010458435355 0.4998964910215236 C
atom_frac 0.5984395331752097 0.4995568676952686 0.3141489468188468 N
atom_frac 0.5984410230316825 0.5004467991085376 0.6858502935241404 N
atom_frac 0.0984499731375834 0.3141520677730867 0.4995447812926129 N
atom_frac 0.0984560496280835 0.6858513738128522 0.5004502202109008 N
atom_frac 0.4015455658494531 0.4995583641547016 0.3141498630868682 N
atom_frac 0.4015470556753157 0.5004482826392119 0.6858435712871866 N
atom_frac 0.9015610733642274 0.6858509113196192 0.5004542868439827 N
atom_frac 0.9015578742606748 0.3141483409109114 0.4995543078945701 N
