#=======================================================
# FHI-aims file: ./geometry.in
# Created using the Atomic Simulation Environment (ASE)
# Wed Feb  9 14:46:28 2022
#=======================================================
lattice_vector 7.1577394999999999 -0.0000276500000000 -0.0000049500000000 
lattice_vector 0.0005403300000000 16.7885664500000011 -0.0002039300000000 
lattice_vector 0.0002859800000000 -0.0001992300000000 16.7888829500000014 
atom_frac 0.2499485300000000 0.3367701300000001 0.6632695300000000 Hg
atom_frac 0.7499334700000000 0.6632180000000001 0.3367315800000000 Hg
atom_frac -0.0000079600000000 0.8367341300000000 0.8367410899999999 Hg
atom_frac 0.4999675800000001 0.1632713100000000 0.1632562100000000 Hg
atom_frac 0.1402756500000000 0.4926635699999999 0.8749184100000000 H
atom_frac 0.6402757800000001 0.5073347600000000 0.1250807800000000 H
atom_frac 0.8903061200000000 0.6250779299999999 0.9926605600000000 H
atom_frac 0.3902913700000001 0.3749247400000000 0.0073373800000000 H
atom_frac 0.6097511600000000 0.0073854600000000 0.3749362400000000 H
atom_frac 0.1097623000000000 0.9926152299999996 0.6250627300000000 H
atom_frac 0.8597518300000001 0.8749366400000000 0.4926008700000001 H
atom_frac 0.3597606600000001 0.1250623300000000 0.5073968200000001 H
atom_frac 0.3234694500000000 0.6172085100000001 0.9131418500000000 H
atom_frac 0.8234712900000000 0.3827901300000000 0.0868605400000000 H
atom_frac 0.0734867100000000 0.5868523500000000 0.1172057800000000 H
atom_frac 0.5734732200000000 0.4131503000000000 0.8827926400000000 H
atom_frac 0.4266542400000001 0.8828252400000001 0.4131948800000000 H
atom_frac 0.9266646200000000 0.1171750300000000 0.5868034900000000 H
atom_frac 0.6766827200000000 0.9132057899999999 0.6171650199999998 H
atom_frac 0.1766788500000000 0.0867946600000000 0.3828350900000000 H
atom_frac 0.3675453200000000 0.7223578400000000 0.8103762899999999 H
atom_frac 0.8675425300000001 0.2776413300000000 0.1896272200000000 H
atom_frac 0.1175292900000000 0.6896127000000001 0.2223636200000000 H
atom_frac 0.6175302600000000 0.3103879300000000 0.7776383799999999 H
atom_frac 0.3825305800000000 0.7776686799999999 0.3104413100000000 H
atom_frac 0.8825367800000001 0.2223308800000000 0.6895578399999999 H
atom_frac 0.6325553000000002 0.8104540400000000 0.7223231000000000 H
atom_frac 0.1325438900000000 0.1895469400000000 0.2776783900000000 H
atom_frac 0.2260709700000000 0.7047141300000000 0.6750331700000000 H
atom_frac 0.7260659800000000 0.2952871400000000 0.3249690099999999 H
atom_frac 0.9760538400000001 0.8249565900000000 0.2047208900000000 H
atom_frac 0.4760609900000001 0.1750426300000000 0.7952817500000000 H
atom_frac 0.5239135400000000 0.7953094900000000 0.1750800700000000 H
atom_frac 0.0239159700000000 0.2046893300000000 0.8249202900000000 H
atom_frac 0.7739178799999999 0.6750875900000001 0.7046831200000000 H
atom_frac 0.2739090700000000 0.3249136300000001 0.2953181000000000 H
atom_frac 0.1654926600000000 0.5413016200000000 0.8326961100000000 C
atom_frac 0.6654929000000002 0.4586976900000000 0.1673042100000000 C
atom_frac 0.9155165100000001 0.6673001399999999 0.0412993600000000 C
atom_frac 0.4155065100000001 0.3327018800000000 0.9586995499999998 C
atom_frac 0.5845319600000000 0.9587398600000000 0.3327227500000000 C
atom_frac 0.0845406400000000 0.0412603100000000 0.6672765500000000 C
atom_frac 0.8345364400000002 0.8327259200000000 0.5412489400000000 C
atom_frac 0.3345410600000000 0.1672736700000000 0.4587496500000000 C
atom_frac 0.2663341500000000 0.6094767799999999 0.8533106300000000 C
atom_frac 0.7663348500000000 0.3905223000000000 0.1466912300000000 C
atom_frac 1.0163480100000002 0.6466836500000001 0.1094764200000000 C
atom_frac 0.5163393100000000 0.3533182700000000 0.8905232600000000 C
atom_frac 0.4837372800000000 0.8905582000000000 0.3533549200000000 C
atom_frac -0.0162542700000000 0.1094418000000000 0.6466440600000000 C
atom_frac 0.7337564300000001 0.8533634300000000 0.6094320800000000 C
atom_frac 0.2337542500000000 0.1466368200000000 0.3905677399999999 C
atom_frac 0.2863386600000000 0.6689211200000000 0.7965660400000000 C
atom_frac 0.7863362000000000 0.3310783300000000 0.2034362000000000 C
atom_frac 0.0363355200000000 0.7034253299999998 0.1689245100000000 C
atom_frac 0.5363341000000001 0.2965754600000000 0.8310766399999999 C
atom_frac 0.4637046800000000 0.8311102900000000 0.2966153300000000 C
atom_frac 0.9637114000000000 0.1688894300000000 0.7033838199999999 C
atom_frac 0.7137231400000001 0.7966249200000000 0.6688809600000000 C
atom_frac 0.2137166200000000 0.2033756800000000 0.3311195600000000 C
atom_frac 0.9740231200000000 0.3888312500000000 0.5163819100000000 C
atom_frac 0.4740140100000000 0.6111679399999999 0.4836192799999999 C
atom_frac 0.7240490500000001 0.9836201400000001 0.8888385200000000 C
atom_frac 0.2240423200000000 0.0163816400000000 0.1111624100000000 C
atom_frac 0.7759457700000000 0.1111754600000000 0.0163816700000000 C
atom_frac 0.2759521900000000 0.8888253800000000 0.9836196800000001 C
atom_frac 0.0259289600000000 0.5163679000000001 0.3888245100000000 C
atom_frac 0.5259286700000000 0.4836293900000000 0.6111759699999999 C
atom_frac 0.0077946400000000 0.4715726299999999 0.5316351800000000 C
atom_frac 0.5077875100000000 0.5284267599999999 0.4683660700000000 C
atom_frac 0.7578210399999999 0.9683647599999999 0.9715779600000000 C
atom_frac 0.2578182000000000 0.0316364200000000 0.0284231300000000 C
atom_frac 0.7421703100000001 0.0284367200000000 0.0316424400000000 C
atom_frac 0.2421731100000000 0.9715640800000001 0.9683590899999999 C
atom_frac 0.9921524800000001 0.5316341399999999 0.4715625199999999 C
atom_frac 0.4921491600000000 0.4683645400000001 0.5284381500000001 C
atom_frac 0.0382334700000000 0.5697595500000001 0.6260361199999999 C
atom_frac 0.5382314800000000 0.4302411400000000 0.3739640200000000 C
atom_frac 0.7882513100000001 0.8739596700000000 0.0697603600000000 C
atom_frac 0.2882503800000000 0.1260411800000000 0.9302402799999999 C
atom_frac 0.7117234800000000 0.9302646099999999 0.1260570300000000 C
atom_frac 0.2117269700000000 0.0697354400000000 0.8739433800000000 C
atom_frac 0.9617128900000000 0.6260548700000000 0.5697297900000000 C
atom_frac 0.4617132200000000 0.3739446200000000 0.4302698400000000 C
atom_frac 0.2051100900000000 0.6600341400000000 0.7220031800000000 C
atom_frac 0.7051056300000001 0.3399663600000000 0.2779982500000000 C
atom_frac 0.9551051200000001 0.7779883300000000 0.1600377700000000 C
atom_frac 0.4551074700000000 0.2220116600000000 0.8399637100000000 C
atom_frac 0.5448746600000000 0.8399983699999999 0.2220417500000000 C
atom_frac 0.0448801900000000 0.1600012200000000 0.7779580600000000 C
atom_frac 0.7948803700000000 0.7220479600000002 0.6599929400000000 C
atom_frac 0.2948747600000001 0.2779526000000000 0.3400072699999999 C
atom_frac 0.1079815300000000 0.5890884800000000 0.7055016099999999 C
atom_frac 0.6079781399999999 0.4109125600000000 0.2944986700000000 C
atom_frac 0.8579935400000002 0.7944927199999999 0.0890887200000000 C
atom_frac 0.3579919500000001 0.2055079900000000 0.9109115400000000 C
atom_frac 0.6419770000000001 0.9109460500000000 0.2055253300000000 C
atom_frac 0.1419833100000000 0.0890537400000000 0.7944746499999999 C
atom_frac 0.8919728800000000 0.7055263600000000 0.5890449400000000 C
atom_frac 0.3919741700000001 0.2944732500000000 0.4109540300000000 C
atom_frac 0.9732250000000000 0.2620733400000000 0.5276928399999999 N
atom_frac 0.4732268400000000 0.7379262299999999 0.4723071699999999 N
atom_frac 0.7232406600000000 0.9723129400000001 0.7620818999999999 N
atom_frac 0.2232358100000000 0.0276889600000000 0.2379192300000000 N
atom_frac 0.7767469700000000 0.2379330700000000 0.0276829000000000 N
atom_frac 0.2767526200000000 0.7620675299999999 0.9723173600000000 N
atom_frac 0.0267237400000000 0.5276597000000000 0.2620657400000000 N
atom_frac 0.5267288100000000 0.4723341800000000 0.7379341799999999 N
atom_frac 0.8646144500000001 0.2822770600000000 0.4668772400000000 N
atom_frac 0.3645968100000000 0.7177234399999999 0.5331167600000000 N
atom_frac 0.6146328500000000 0.0331310800000000 0.7822889200000001 N
atom_frac 0.1146136100000000 0.9668756800000001 0.2177115600000000 N
atom_frac 0.8853414200000002 0.2177257000000000 0.9668618999999999 N
atom_frac 0.3853607800000000 0.7822748999999999 0.0331338200000000 N
atom_frac 0.1353432900000000 0.4668510000000000 0.2822776800000000 N
atom_frac 0.6353542000000001 0.5331420800000000 0.7177230199999999 N
atom_frac 0.0409157600000000 0.3280470700000001 0.5601806499999999 N
atom_frac 0.5408954500000001 0.6719507799999999 0.4398155100000000 N
atom_frac 0.7909337400000001 0.9398221000000000 0.8280516700000000 N
atom_frac 0.2909168600000001 0.0601829000000000 0.1719490900000000 N
atom_frac 0.7090527700000000 0.1719640800000000 0.0601760600000000 N
atom_frac 0.2090674400000000 0.8280373599999999 0.9398221900000000 N
atom_frac 0.9590291800000001 0.5601566400000000 0.3280345100000000 N
atom_frac 0.4590464100000000 0.4398344500000000 0.6719651500000000 N
atom_frac 0.8647631000000001 0.3606571600000000 0.4578082400000000 N
atom_frac 0.3647650000000001 0.6393444500000000 0.5421949700000001 N
atom_frac 0.6147840600000001 0.0421949500000000 0.8606674600000001 N
atom_frac 0.1147853200000000 0.9578045600000000 0.1393337100000000 N
atom_frac 0.8852208600000000 0.1393448200000000 0.9578097600000000 N
atom_frac 0.3852244800000000 0.8606553200000000 0.0421922200000000 N
atom_frac 0.1352120300000000 0.4577975100000000 0.3606594000000000 N
atom_frac 0.6352042400000000 0.5422020200000000 0.6393425100000000 N
atom_frac 0.0469183000000000 0.4936216099999999 0.6056575299999999 N
atom_frac 0.5469128900000000 0.5063788500000000 0.3943436299999999 N
atom_frac 0.7969451200000001 0.8943412300000000 0.9936244200000000 N
atom_frac 0.2969403000000000 0.1056599900000000 0.0063763500000000 N
atom_frac 0.7030358800000001 0.0063984200000000 0.1056669400000000 N
atom_frac 0.2030417100000000 0.9936017899999999 0.8943340500000000 N
atom_frac 0.9530256200000001 0.6056612100000001 0.4935971199999999 N
atom_frac 0.4530265000000001 0.3943374099999999 0.5064025000000000 N
atom_frac 0.0925522600000000 0.5324566500000001 0.7612329200000000 N
atom_frac 0.5925505300000001 0.4675439299999999 0.2387665200000000 N
atom_frac 0.8425758400000000 0.7387636099999999 0.0324538400000000 N
atom_frac 0.3425683300000000 0.2612379200000000 0.9675454000000000 N
atom_frac 0.6574215799999999 0.9675842299999999 0.2612499200000000 N
atom_frac 0.1574306400000000 0.0324160300000000 0.7387496300000000 N
atom_frac 0.9074150800000002 0.7612499900000000 0.5324060999999999 N
atom_frac 0.4074219600000001 0.2387492100000000 0.4675920300000000 N
atom_frac 0.0349363500000000 0.3605176900000000 0.7741396000000000 Cl
atom_frac 0.5349265400000001 0.6394775000000000 0.2258561800000000 Cl
atom_frac 0.7849645100000001 0.7258668900000000 0.8605055000000000 Cl
atom_frac 0.2849487700000001 0.2741403300000000 0.1394941400000000 Cl
atom_frac 0.7150080200000000 0.1394871400000000 0.2741295700000000 Cl
atom_frac 0.2150277000000000 0.8605158600000001 0.7258660400000000 Cl
atom_frac 0.9649692000000000 0.7741121200000001 0.3605138999999999 Cl
atom_frac 0.4649837700000001 0.2258838400000000 0.6394867500000000 Cl
