#=======================================================
# FHI-aims file: ./geometry.in
# Created using the Atomic Simulation Environment (ASE)
# Fri Jan 14 15:06:22 2022
#=======================================================
lattice_vector 10.7090841210000001 0.3875304540000000 3.8744551380000001 
lattice_vector 4.5003021660000000 10.5599192510000002 3.0866847620000000 
lattice_vector 0.2605840190000000 0.3445004220000000 15.6155160009999996 
atom_frac 0.4999956318567982 0.5000044432159069 0.9999985436515857 Co
atom_frac 0.0000020440937760 0.4999971224828527 0.9999999091441295 Co
atom_frac 0.9999973439146711 0.9999981981277840 0.0000010215925600 Co
atom_frac 0.4269289356640797 0.5679951607411339 0.1835963015197493 H
atom_frac 0.9681968439258382 0.6992114369835533 0.5443764698495099 H
atom_frac 0.3875159760639305 0.4589953935419472 0.3451126845928626 H
atom_frac 0.3269747595774747 0.0903245031836306 0.3696014716886111 H
atom_frac 0.1573404041344161 0.3154894195760676 0.1384991234788657 H
atom_frac 0.3063902905717483 0.8109884710805488 0.0526027323443118 H
atom_frac 0.1641046334384909 0.3044261584372521 0.2992124227661108 H
atom_frac 0.1497800418013923 0.3136179101087748 0.8594063956894046 H
atom_frac 0.1516053194588095 0.3059634657886575 0.7011858732554828 H
atom_frac 0.9078071988742736 0.9648221524429342 0.3419822884930995 H
atom_frac 0.9741848930185527 0.9958897561408615 0.8233321652737615 H
atom_frac 0.4558740514794479 0.3147986727353923 0.4606855240821801 H
atom_frac 0.3825518997067975 0.0824638460488814 0.7476563649172193 H
atom_frac 0.0258055081005537 0.0041220000432034 0.1766662338697031 H
atom_frac 0.0318333040753629 0.3007525349498579 0.4556195917091371 H
atom_frac 0.6127406057880405 0.7795168280398241 0.3795629485718308 H
atom_frac 0.0238860430498491 0.3022789324391865 0.6153325207140128 H
atom_frac 0.4796932096541724 0.2569044559902807 0.0812305600093737 H
atom_frac 0.2531089125157706 0.0392436854281186 0.9089464598355264 H
atom_frac 0.6730000635415859 0.9097019352504034 0.6303998115596841 H
atom_frac 0.4500743426097884 0.1319105739185886 0.2367703245986590 H
atom_frac 0.8426793884132736 0.6845065979343800 0.8614842076100117 H
atom_frac 0.6174437899504284 0.9175369791435483 0.2523518482036807 H
atom_frac 0.0921853651330693 0.0351932698566060 0.6580174108855842 H
atom_frac 0.2575981292091354 0.9965125794877282 0.5294347884482917 H
atom_frac 0.7468798900157904 0.9607602815200521 0.0910602795108133 H
atom_frac 0.6124600775895958 0.5410282131776183 0.6548869319131539 H
atom_frac 0.5203080990698578 0.7431010571571619 0.9187727707200891 H
atom_frac 0.5730624233281176 0.4320165888934751 0.8164012208662539 H
atom_frac 0.5499205987920204 0.8680989350339485 0.7632337961215826 H
atom_frac 0.8359324525827959 0.6955530950255876 0.7007718524185479 H
atom_frac 0.8502104017306565 0.6863705914058825 0.1406081166267938 H
atom_frac 0.6936009145857579 0.1890147679554417 0.9473945893157352 H
atom_frac 0.9761359663726021 0.6976909504849259 0.3846656725188781 H
atom_frac 0.5441042304781903 0.6852236854093759 0.5393208306252788 H
atom_frac 0.8483973949850708 0.6940046668642805 0.2988296207226568 H
atom_frac 0.7423924024538735 0.0035010371300288 0.4705644913347342 H
atom_frac 0.3872558248638781 0.2204869823802156 0.6204400078923342 H
atom_frac 0.2826903657487634 0.4908079699051339 0.9682900889870679 C
atom_frac 0.2290225975502338 0.6183461401899276 0.9947780534849358 C
atom_frac 0.7069901760599323 0.9368820959150238 0.2398850342414321 C
atom_frac 0.7502454907984982 0.9354039406058798 0.3145916160130044 C
atom_frac 0.9198734755294493 0.6044780960249907 0.1777679430051578 C
atom_frac 0.3104172862607085 0.1048529316444089 0.5891585140943291 C
atom_frac 0.8888749654032392 0.2657916428651176 0.0062571617453387 C
atom_frac 0.4617047535015358 0.2965774002547191 0.1417471381218149 C
atom_frac 0.8660924664102794 0.9644562613404299 0.2892668514924069 C
atom_frac 0.4430071703103451 0.2284618597416567 0.2296439548605278 C
atom_frac 0.9187222859996138 0.6077771647953580 0.2661516407835764 C
atom_frac 0.9811546966591608 0.6118391279771910 0.5252849557266117 C
atom_frac 0.7780620428514523 0.9611741346997460 0.1492190181250450 C
atom_frac 0.0059004997311049 0.4990285810049215 0.3136479679183212 C
atom_frac 0.6895771353376574 0.8951557232587815 0.4108433428605806 C
atom_frac 0.4311823612297373 0.4710553542537707 0.1992078840613161 C
atom_frac 0.9957189048991493 0.5008682971960851 0.5914936932980126 C
atom_frac 0.7173165433519911 0.5091890141734863 0.0317071342361431 C
atom_frac 0.2601825645097904 0.7644858973273327 0.0323714794977334 C
atom_frac 0.7398124512214538 0.2355172530313467 0.9676242738389857 C
atom_frac 0.9795543542581054 0.7774299801834769 0.9706665681024874 C
atom_frac 0.4109357142548191 0.2460508718019199 0.4752463212470631 C
atom_frac 0.5890516362631713 0.7539654854966854 0.5247596099707224 C
atom_frac 0.1339041296499062 0.0355495136458259 0.7107337544337753 C
atom_frac 0.0656009794154997 0.0150725241809369 0.8027072443029653 C
atom_frac 0.9854700451468543 0.6110453295162798 0.4353289518124938 C
atom_frac 0.5881095771545120 0.5921607890165814 0.7110281941540890 C
atom_frac 0.0924780874416698 0.3913599390979738 0.2668866682485103 C
atom_frac 0.0145446390802846 0.3889285557623764 0.5646709081686440 C
atom_frac 0.0204505015796954 0.2225651357338521 0.0293321742316053 C
atom_frac 0.2990159947085687 0.0679112218839748 0.5150797071761204 C
atom_frac 0.9941247749423209 0.5009468635719116 0.6863502369608627 C
atom_frac 0.9343919784520831 0.9849353248753514 0.1972919331730553 C
atom_frac 0.6079918123237461 0.7852134448534257 0.5981823862327430 C
atom_frac 0.0812896133149224 0.3921984756063136 0.7338556075225711 C
atom_frac 0.3397873447166333 0.1202744423512101 0.4243061764688035 C
atom_frac 0.9075509323896184 0.6086203314918066 0.7331045303411086 C
atom_frac 0.1111276063474591 0.7342045550149690 0.9937400122713881 C
atom_frac 0.2930039495862715 0.0631227339882514 0.7601182926118993 C
atom_frac 0.5820435724977384 0.7181150878501652 0.6923737512275919 C
atom_frac 0.5688072265059249 0.5289583105664447 0.8007909800081593 C
atom_frac 0.5382971168631696 0.7034290919011141 0.8582545789599222 C
atom_frac 0.2497540721883239 0.0645969833477764 0.6854092126649789 C
atom_frac 0.5569942829033321 0.7715455554924944 0.7703589640374772 C
atom_frac 0.3733875627023053 0.1912189303683505 0.5658758942120768 C
atom_frac 0.0801311497720576 0.3955082802021720 0.8222377071935795 C
atom_frac 0.4179454257057530 0.2818975146556467 0.3076293114316471 C
atom_frac 0.7009758631684451 0.9321013193204803 0.4849220176817395 C
atom_frac 0.7709827754309799 0.3816549319055581 0.0052116985286759 C
atom_frac 0.9095574897420914 0.6031966618230484 0.8226716533223238 C
atom_frac 0.0904615687837803 0.3967963912863013 0.1773162881877752 C
atom_frac 0.2219296332993821 0.0388298126000706 0.8507850909489036 C
atom_frac 0.0043032280943295 0.4991034253352137 0.4085060268099525 C
atom_frac 0.0188715265423127 0.3881297015382755 0.4747117598376959 C
atom_frac 0.4118820429254837 0.4078546814854107 0.2889710895110368 C
atom_frac 0.6601965399898971 0.8797459744101558 0.5756953295253239 C
atom_frac 0.3919932541071418 0.2148039944079300 0.4018219766676764 C
atom_frac 0.6266018317336017 0.8087926865796361 0.4341279053374194 C
atom_frac 0.0050150460832796 0.5014061742168749 0.1327946275534302 N
atom_frac 0.6792870684114760 0.3599901870209975 0.9810387631051043 N
atom_frac 0.8934370287019745 0.9817924594925244 0.1266960687932084 N
atom_frac 0.3207128742019947 0.6400148118506194 0.0189528408483426 N
atom_frac 0.9949911638600138 0.4985879495931725 0.8672039749134582 N
atom_frac 0.1065542791079466 0.0182125566711449 0.8733047184484447 N
atom_frac 0.1337398556059952 0.8242694209119603 0.0168743106512537 N
atom_frac 0.4571587848154479 0.4163620540883456 0.1256526130378788 N
atom_frac 0.8662577168737325 0.1757298223189423 0.9831222210180214 N
atom_frac 0.5428439128784530 0.5836425710843399 0.8743473466468359 N
atom_frac 0.2133153818573560 0.4489315370552019 0.9497898748391692 O
atom_frac 0.0559764564184846 0.3039401325373915 0.0386477369765004 O
atom_frac 0.4142706704720920 0.4212614815824409 0.9638602704697520 O
atom_frac 0.9440219972327242 0.6960588750525074 0.9613550265259150 O
atom_frac 0.7866892876535516 0.5510615518164030 0.0502131567394315 O
atom_frac 0.0934687038149562 0.1006983771855871 0.0381169315062664 O
atom_frac 0.9065264915581535 0.8992950895780963 0.9618851741143503 O
atom_frac 0.5857350359856780 0.5787384175166748 0.0361360345536994 O
