#=======================================================
# FHI-aims file: ./geometry.in
# Created using the Atomic Simulation Environment (ASE)
# Fri Jan 14 15:06:22 2022
#=======================================================
lattice_vector 10.2415449170000006 -0.2130662980000000 -4.1423415920000002 
lattice_vector -4.9541562969999999 9.2414880050000008 -3.4909674350000000 
lattice_vector 0.2574334020000000 0.1853741960000000 11.3889326020000006 
atom_frac 0.5000010558157583 0.5000031432387999 0.0000017437976467 Mn
atom_frac 0.9999989822804380 0.4999963129300583 0.4999949004278788 Mn
atom_frac 0.5104149807182096 0.1517358601252496 0.3677270115280535 H
atom_frac 0.2841136541457203 0.1428284712622769 0.1323131324989787 H
atom_frac 0.4895874290516885 0.8482677808685110 0.6322781792727737 H
atom_frac 0.7158902813857111 0.8571699213384676 0.8676857362217874 H
atom_frac 0.3747907853861037 0.1498728476366864 0.4980583244559256 H
atom_frac 0.1519090873072597 0.8768514987237591 0.0019641312063994 H
atom_frac 0.6252077082463856 0.8501285985936277 0.5019438911910539 H
atom_frac 0.8480928986812656 0.1231468633406152 0.9980340190735431 H
atom_frac 0.1822923696852142 0.6828950763075594 0.3079377023573712 H
atom_frac 0.8750229168294510 0.8744333014768770 0.1920603166522382 H
atom_frac 0.8177081208941600 0.3171085521302571 0.6920659085082832 H
atom_frac 0.1249757418657254 0.1255661189452724 0.8079351917564992 H
atom_frac 0.3172278651364379 0.6848916609255652 0.1772765486675850 H
atom_frac 0.0076816127049568 0.1400390529152986 0.3227389050060268 H
atom_frac 0.6827730587742948 0.3151108813303480 0.8227277649137006 H
atom_frac 0.9923199399522031 0.8599603953309796 0.6772585425582915 H
atom_frac 0.5775060023372092 0.5266946041483679 0.2581006444683921 H
atom_frac 0.7685178179309345 0.3193398700473152 0.2418873220794139 H
atom_frac 0.4224955199675691 0.4733048261174844 0.7418976645902690 H
atom_frac 0.2314802045162024 0.6806541455824656 0.7581071762688294 H
atom_frac 0.7040604004562352 0.6624984740113219 0.2712343102336304 H
atom_frac 0.8911960437861737 0.4327568647664818 0.2287614346331566 H
atom_frac 0.2959387389742716 0.3375020119000638 0.7287625776685828 H
atom_frac 0.1088040059602234 0.5672393510512350 0.7712335974394265 H
atom_frac 0.4247729853684986 0.9186749753293241 0.2629332643647542 C
atom_frac 0.1558470179233353 0.1619862354024803 0.2371521854969103 C
atom_frac 0.5752273534489731 0.0813285632063696 0.7370746539726126 C
atom_frac 0.8441587931454604 0.8380142674840768 0.7628515244199077 C
atom_frac 0.4386462443461382 0.0489842823916931 0.3548124532826050 C
atom_frac 0.1942622694393350 0.0839808335366712 0.1452352991539385 C
atom_frac 0.5613513389704604 0.9510214339322826 0.6451916181940046 C
atom_frac 0.8057426275627646 0.9160196900425532 0.8547663285537792 C
atom_frac 0.3623590420077890 0.0479596021955544 0.4280445332998326 C
atom_frac 0.1200152158831429 0.9344260350516150 0.0719852252934601 C
atom_frac 0.6376393776191519 0.9520439237841956 0.5719618051023614 C
atom_frac 0.8799897114713315 0.0655745065080282 0.9280155409199153 C
atom_frac 0.2694845314730044 0.9165549788061680 0.4142768011193707 C
atom_frac 0.0023429847089317 0.8553060953297589 0.0857087492633822 C
atom_frac 0.7305082349402738 0.0834464477367334 0.5857198132277546 C
atom_frac 0.9976594649633339 0.1446911985331454 0.9142892422378422 C
atom_frac 0.2558798052747591 0.7858705986797929 0.3227291227811973 C
atom_frac 0.9632018291432868 0.9332174679324150 0.1772512718462732 C
atom_frac 0.7441216600760683 0.2141330450262089 0.6772748473048792 C
atom_frac 0.0368006375805621 0.0667819596211956 0.8227482579271453 C
atom_frac 0.3314459389458475 0.7869440650159020 0.2490951963341813 C
atom_frac 0.0379165342220631 0.0824404092782771 0.2509339655192306 C
atom_frac 0.6685526627953705 0.2130595688463970 0.7509059731019645 C
atom_frac 0.9620835496275149 0.9175600739208747 0.7490641430977403 C
atom_frac 0.5036751614847573 0.9189276555970523 0.1850165563993044 C
atom_frac 0.2340371338318974 0.3188245276441890 0.3150512802577623 C
atom_frac 0.4963242936184002 0.0810759216117347 0.8149884182346198 C
atom_frac 0.7659677328178275 0.6811759779546093 0.6849512089442980 C
atom_frac 0.5077455440293617 0.7942752330373962 0.1143008307835202 C
atom_frac 0.1800569784834422 0.3935489999289031 0.3857371368550344 C
atom_frac 0.4922554576377182 0.2057294788700830 0.8857032980812676 C
atom_frac 0.8199435216459108 0.6064482633976311 0.6142601362053666 C
atom_frac 0.5781097890110657 0.0431016206909334 0.1783560100824530 C
atom_frac 0.3648492146627547 0.3999330020608625 0.3216792381789090 C
atom_frac 0.4218907015683016 0.9569020077468836 0.8216476007832085 C
atom_frac 0.6351541661277976 0.6000664048000885 0.6783223738036027 C
atom_frac 0.1905165485920859 0.9147469789699300 0.4924602448750121 C
atom_frac 0.9223414750310750 0.6981661308800469 0.0075844404553676 C
atom_frac 0.8094809228649708 0.0852523003210592 0.5075409347737005 C
atom_frac 0.0776599695173488 0.3018311297342393 0.9924140533197843 C
atom_frac 0.1840910300021150 0.0400124162706419 0.5624802776832141 C
atom_frac 0.9775823542321046 0.6217114083576403 0.9375702446610531 C
atom_frac 0.8159030060528631 0.9599857337461297 0.4375193063051266 C
atom_frac 0.0224184274667181 0.3782846788848531 0.0624320385866710 C
atom_frac 0.1272403966997615 0.7916514847200203 0.5028366520891794 C
atom_frac 0.7888550418172429 0.6244725002588465 0.9971900448546619 C
atom_frac 0.8727580931819218 0.2083457121092849 0.4971616255190767 C
atom_frac 0.2111469612228660 0.3755279954962418 0.0028096436974678 C
atom_frac 0.5076358160056600 0.6839079676429591 0.0631307096927996 N
atom_frac 0.1208260047927965 0.4445610722075415 0.4368900040834234 N
atom_frac 0.4923642241907515 0.3160946132860545 0.9368706601850434 N
atom_frac 0.8791720954106947 0.5554351130738056 0.5631043095483291 N
atom_frac 0.6376693116558911 0.1469756883616569 0.1716623955679707 N
atom_frac 0.4754355577799387 0.4661433907351479 0.3283668464020693 N
atom_frac 0.3623297974222339 0.8530247795693030 0.8283353538285851 N
atom_frac 0.5245660726335756 0.5338582271627031 0.6716304164457582 N
atom_frac 0.1846027660655452 0.1493180665050176 0.6183250414758843 N
atom_frac 0.0310475253821352 0.5663692709308066 0.8817319838173175 N
atom_frac 0.8153953682411268 0.8506823861577643 0.3816723487002490 N
atom_frac 0.9689522037888736 0.4336246313919432 0.1182701249264822 N
atom_frac 0.0844390718134703 0.6834238396892471 0.5094986554579890 N
atom_frac 0.6739414553270676 0.5749764826636792 0.9905151160401998 N
atom_frac 0.9155599121043348 0.3165723069190064 0.4904986018772062 N
atom_frac 0.3260610588007609 0.4250250965610789 0.0094850905110633 N
atom_frac 0.6349463057422537 0.5560095092331281 0.2113047521963126 O
atom_frac 0.8446409914711026 0.4235781402597354 0.2886713898479059 O
atom_frac 0.3650543195474185 0.4439920754161050 0.7886930129254494 O
atom_frac 0.1553585168352072 0.5764169741078929 0.7113239857198861 O
