#=======================================================
# FHI-aims file: ./geometry.in
# Created using the Atomic Simulation Environment (ASE)
# Fri Jan 14 15:06:22 2022
#=======================================================
lattice_vector 5.6727460409999999 0.0944289710000000 0.0000390660000000 
lattice_vector -0.7909969200000000 9.1140900869999992 -0.0004534340000000 
lattice_vector 0.0000974260000000 -0.0006325280000000 13.1348531019999992 
atom_frac 0.0032630546551076 0.5353013781203798 0.1155850457238401 Cu
atom_frac 0.9967189669881125 0.9647743079979560 0.6151556063021459 Cu
atom_frac 0.9967226802509900 0.4647057346301365 0.8844295162800861 Cu
atom_frac 0.0032970780900357 0.0352226138351170 0.3848292632642656 Cu
atom_frac 0.5000001006739794 0.0000155537839319 0.4999835493439023 Cu
atom_frac 0.5000049434052299 0.5000032934263529 0.0000195803712657 Cu
atom_frac 0.8014315958309413 0.8071632439213943 0.4693561959663556 H
atom_frac 0.1987652526923825 0.6928968127529984 0.9693969410340204 H
atom_frac 0.1985667664561177 0.1928459329854491 0.5306667407366846 H
atom_frac 0.8012578335293271 0.3071000356000440 0.0305803151767137 H
atom_frac 0.3473042799716310 0.7482714905038534 0.2203218948451990 C
atom_frac 0.4421955283566916 0.8492853703371850 0.2995022319247057 C
atom_frac 0.6730092913713080 0.8648515694602565 0.2477215265414827 C
atom_frac 0.5821244312922218 0.7589541822513651 0.1678976823899063 C
atom_frac 0.6525813031817408 0.7519854148120471 0.7199612670638446 C
atom_frac 0.5577239283663503 0.6509558447769164 0.7991877256603033 C
atom_frac 0.3268824712900198 0.6353805460635511 0.7473372756378396 C
atom_frac 0.4177568746117117 0.7413349930149805 0.6675795883142401 C
atom_frac 0.6526669943517619 0.2517204101813562 0.7796774400122004 C
atom_frac 0.5577981711904769 0.1507030063459425 0.7004963414111318 C
atom_frac 0.3269974938700884 0.1351421582374144 0.7522854216055707 C
atom_frac 0.4178601545063714 0.2410573304740139 0.8321062211042617 C
atom_frac 0.3473915786764010 0.2480053716986106 0.2800334997509993 C
atom_frac 0.4422827839734396 0.3490247165095112 0.2008085633673674 C
atom_frac 0.6731292893438124 0.3646109345711820 0.2526536844192293 C
atom_frac 0.5822380471440455 0.2586621482531442 0.3324136559879848 C
atom_frac 0.1479979227236399 0.6827776660389800 0.2093966176525086 O
atom_frac 0.3508427786327957 0.8974105203944659 0.3795096276835325 O
atom_frac 0.8677761738295969 0.9355779803510629 0.2611860441590750 O
atom_frac 0.6689551942890475 0.7014084093546700 0.0919821409219352 O
atom_frac 0.8133682731416700 0.9113802461912571 0.4856644704137808 O
atom_frac 0.8518701418174361 0.8174899706691292 0.7089944079519557 O
atom_frac 0.6489660307547781 0.6028659894607101 0.8792224715228587 O
atom_frac 0.1321304002151606 0.5646119572529784 0.7607257405056629 O
atom_frac 0.3309017994656002 0.7990164113560068 0.5917058465628673 O
atom_frac 0.1865132629750050 0.5886096342776382 0.9857087482251574 O
atom_frac 0.8519714386311180 0.3172131565769333 0.7905928198415141 O
atom_frac 0.6491600278090530 0.1025799563915442 0.6204897070309344 O
atom_frac 0.1322358921526217 0.0644156933209672 0.7388308013022569 O
atom_frac 0.3310507405103280 0.2986171459134113 0.9080232856599438 O
atom_frac 0.1866316170728410 0.0886398848996279 0.5143295360005313 O
atom_frac 0.1481072568919046 0.1824952840362073 0.2910148239896558 O
atom_frac 0.3510534617997578 0.3971177310195841 0.1207738175758664 O
atom_frac 0.8678866412678020 0.4353794683510727 0.2392606515344867 O
atom_frac 0.6690991600838244 0.2010113896525992 0.4082965347784581 O
atom_frac 0.8135044623856090 0.4113993412203242 0.0143027684150496 O
