#=======================================================
# FHI-aims file: ./geometry.in
# Created using the Atomic Simulation Environment (ASE)
# Fri Jan 14 15:06:22 2022
#=======================================================
lattice_vector 7.8988027629999999 -0.0003622930000000 -1.4921903360000000 
lattice_vector -3.9665610999999998 12.4375102500000008 -6.5569112150000004 
lattice_vector 0.0330260990000000 0.0007071500000000 14.6071759320000005 
atom_frac 0.2897771838382183 0.5832606544569146 0.2893530590354699 Co
atom_frac 0.7066875727913382 0.7062837484211144 0.4166973976366534 Co
atom_frac 0.0002438242260256 0.7105668415157002 0.2937335419432900 Co
atom_frac 0.7066998664162936 0.4167004886668267 0.7062623786131041 Co
atom_frac 0.2897310281542502 0.2893483111477835 0.5831602950708756 Co
atom_frac 0.0002679497038187 0.2937740406873246 0.7105350262318665 Co
atom_frac 0.1860331745430843 0.9999579889649585 0.4237590268247190 H
atom_frac 0.8138959092317390 0.5762743200782623 0.9999377860921895 H
atom_frac 0.1858751449518365 0.4236523370042279 0.9998689632242943 H
atom_frac 0.7625331452056087 0.5763941951164638 0.5763283876066011 H
atom_frac 0.2375981444205806 0.4237131350834105 0.4237000424407000 H
atom_frac 0.8139556284840946 0.9999700116083189 0.5764284174937162 H
atom_frac 0.3650572044365957 0.9057904007173292 0.4311170139092084 C
atom_frac 0.6349645301557131 0.5681582104779039 0.0940065954001313 C
atom_frac 0.4590930744363602 0.5251179434933917 0.0940699275674319 C
atom_frac 0.9342366051640024 0.5691060763444682 0.4748773397789208 C
atom_frac 0.0669328381935372 0.5259162638713378 0.4317708510120469 C
atom_frac 0.5409904505013685 0.9058927723127682 0.4742360352692074 C
atom_frac 0.6350666080452497 0.0940476157875025 0.5683303987429866 C
atom_frac 0.3649649505473178 0.4309851113214478 0.9057266335187890 C
atom_frac 0.5409121621730434 0.4741122042491528 0.9058455646612771 C
atom_frac 0.0669542371794450 0.4318647569386800 0.5259365239093157 C
atom_frac 0.9342649651290740 0.4749733586773316 0.5691304967686720 C
atom_frac 0.4592107762427202 0.0941100664762686 0.5252809487979206 C
atom_frac 0.3193705159113165 0.9999520405466246 0.4552809097068150 C
atom_frac 0.6806045871483021 0.5444376999040230 0.9999366965897565 C
atom_frac 0.3192637899144727 0.4551384061890289 0.9998937871259911 C
atom_frac 0.8645131818883699 0.5449698308767595 0.5449333292298492 C
atom_frac 0.1361628877194079 0.4555604046771152 0.4555302203992113 C
atom_frac 0.6806936772143644 0.9999848242221464 0.5445937170004668 C
atom_frac 0.2639541098924241 0.7996814684565265 0.3664965894708843 N
atom_frac 0.7360410282239794 0.6330676319662274 0.2001003875571143 N
atom_frac 0.4641062196179249 0.5666485025260856 0.2002179442886458 N
atom_frac 0.8976486190189656 0.6336620954840909 0.4332944796645107 N
atom_frac 0.1030297655513052 0.5670265039562280 0.3667849616113513 N
atom_frac 0.5360371228505372 0.7998190810263709 0.4329832231945758 N
atom_frac 0.7361390260797901 0.2001380393995689 0.6332200651799410 N
atom_frac 0.2638799955048866 0.3663989073598798 0.7995983849554874 N
atom_frac 0.5359736542794804 0.4329072716956688 0.7997602894965110 N
atom_frac 0.1030714517918057 0.3669171916856726 0.5670785175712751 N
atom_frac 0.8977027499481167 0.4334249365828101 0.6337270283254738 N
atom_frac 0.4641969273005842 0.2002311806468172 0.5668014324902445 N
atom_frac 0.3714456276873648 0.7414122504526404 0.3706535678847374 N
atom_frac 0.6298739698500452 0.6291464478327385 0.2585098767865049 N
atom_frac 0.0008019459445165 0.6293734014441341 0.3707261551137293 N
atom_frac 0.6299473217267247 0.2585319054460911 0.6292887892030662 N
atom_frac 0.3713920358074246 0.3705894689965277 0.7413328834084041 N
atom_frac 0.0008742235013771 0.3708712684069654 0.6294484662744964 N
atom_frac 0.0763592955556121 0.5775279411451990 0.1526928988564080 Cl
atom_frac 0.9233204298197887 0.8473500184458869 0.4241996324431410 Cl
atom_frac 0.4991666624660950 0.5757423803554857 0.4229478284679686 Cl
atom_frac 0.9233535653181020 0.4242372629770303 0.8473701824319093 Cl
atom_frac 0.0760251247400916 0.1527033467236976 0.5771099275023772 Cl
atom_frac 0.4991093137656575 0.4225824802874740 0.5753995117191265 Cl
