#=======================================================
# FHI-aims file: ./geometry.in
# Created using the Atomic Simulation Environment (ASE)
# Fri Jan 14 15:05:04 2022
#=======================================================
lattice_vector 5.6594483179999999 -0.7156707820000000 -1.1863298149999999 
lattice_vector -3.8009764570000000 8.3566168279999999 -3.7666273950000000 
lattice_vector 1.3594880210000000 1.0557909700000001 11.0344343980000001 
atom_frac 0.4040947401978059 0.9031201521527805 0.8056232357562296 U
atom_frac 0.5958496299479421 0.0968606347426544 0.1943708235712975 U
atom_frac 0.2025150749806102 0.3167047020264135 0.7334257458344525 H
atom_frac 0.4695801445645884 0.5825878500614933 0.2626195577899325 H
atom_frac 0.7975840063074884 0.6833273130141181 0.2665897460166705 H
atom_frac 0.5304948919596483 0.4174380959356582 0.7373613709081041 H
atom_frac 0.4846944360110541 0.1953438750585902 0.5323286033501020 H
atom_frac 0.9501461794333395 0.6643488896802693 0.4717152942538761 H
atom_frac 0.5153765175784385 0.8046578360166164 0.4676898326960170 H
atom_frac 0.0498587883524806 0.3356443825714948 0.5282967919579633 H
atom_frac 0.1459463179347723 0.0974542470898569 0.5031788766816732 H
atom_frac 0.6363180044379463 0.5934846915978512 0.4942834876394003 H
atom_frac 0.8541185239967604 0.9025673831443229 0.4968103578321746 H
atom_frac 0.3636659831396473 0.4065216765786631 0.5057054381667072 H
atom_frac 0.3655815149165350 0.0811939736470535 0.6578187367466626 C
atom_frac 0.7048084789124190 0.4233280920149625 0.3426532221298544 C
atom_frac 0.6343916457822446 0.9188013113028149 0.3421842730949437 C
atom_frac 0.2951778314731399 0.5766649890461862 0.6573477303917913 C
atom_frac 0.3274817831066558 0.1766015325555230 0.5822059692389701 C
atom_frac 0.7422306204583361 0.5946981382280181 0.4182440574115275 C
atom_frac 0.6725670978689067 0.8234071833219190 0.4177988910392756 C
atom_frac 0.2577782656540464 0.4053091815614990 0.5817542138890630 C
atom_frac 0.3349565943531304 0.3346411637911047 0.6700196224812629 C
atom_frac 0.6651074213807888 0.6653778352556400 0.3299804063470120 C
atom_frac 0.2990667289787440 0.9313705367640210 0.5926898760772518 O
atom_frac 0.7007346625292643 0.3382846603613033 0.4072492100186055 O
atom_frac 0.7009217014799489 0.0686243867514875 0.4073074020326786 O
atom_frac 0.2992510527351442 0.6617197416446601 0.5927564492029092 O
atom_frac 0.7387694709666377 0.9787191877469039 0.8012802863735119 O
atom_frac 0.9383202485480096 0.1799092818754744 0.2058318926622391 O
atom_frac 0.2611516631278690 0.0212466669027904 0.1987025526393396 O
atom_frac 0.0616302026873967 0.8200741592355527 0.7941736952687962 O
atom_frac 0.4612647463185554 0.1515359368553746 0.7819785972733231 O
atom_frac 0.6794397348208535 0.3699710879140384 0.2192276253368348 O
atom_frac 0.5386428431728518 0.8484448124863845 0.2180287137132523 O
atom_frac 0.3205258921328848 0.6300159756323823 0.7807690493844320 O
atom_frac 0.4792628776057911 0.1156383587448744 0.9998655167035508 F
atom_frac 0.5207024952615029 0.8843545824645177 0.0001412933388353 F
