#=======================================================
# FHI-aims file: ./geometry.in
# Created using the Atomic Simulation Environment (ASE)
# Fri Jan 14 15:06:22 2022
#=======================================================
lattice_vector 3.8583302910000001 -0.0000494410000000 0.0000013810000000 
lattice_vector -0.0002095030000000 15.8299137580000000 -0.0001387110000000 
lattice_vector 0.0000517030000000 -0.0001386090000000 15.8299805029999998 
atom_frac 0.1114729480973935 0.2500095845991694 0.2499949083566689 Tl
atom_frac 0.8885367734921062 0.7499919500311589 0.7500093132025041 Tl
atom_frac 0.9997330236969975 0.3515449277740998 0.8402118612841318 H
atom_frac 0.9997122483497736 0.6597798518235790 0.3515418188333043 H
atom_frac 0.9997347815329436 0.1484632775754804 0.6597866125530983 H
atom_frac 0.9997895622686457 0.8402193601060047 0.1484585004076848 H
atom_frac 0.0002818812667513 0.6484515531106539 0.1597879382412870 H
atom_frac 0.0002845143335009 0.3402210509845247 0.6484548221688511 H
atom_frac 0.0002671644911558 0.8515332032466673 0.3402106601225795 H
atom_frac 0.0002201593711959 0.1597815427536275 0.8515394040187798 H
atom_frac 0.9824829412807362 0.4498588813512612 0.7843655297751793 H
atom_frac 0.9824655701447826 0.7156350375850310 0.4498488111414432 H
atom_frac 0.9824777099217030 0.0501605871002511 0.7156329471711372 H
atom_frac 0.9825420447344941 0.7843640666543479 0.0501565648096047 H
atom_frac 0.0175267801283496 0.5501388629701863 0.2156367966126353 H
atom_frac 0.0175311926756976 0.2843683920845946 0.5501478298828599 H
atom_frac 0.0175268280084708 0.9498377888706103 0.2843636938082099 H
atom_frac 0.0174754522551481 0.2156362045141904 0.9498413396106500 H
atom_frac 0.3827337442344714 0.4092847937403903 0.8229237074094298 H
atom_frac 0.3827045841724583 0.6770792193640247 0.4092704592145750 H
atom_frac 0.3827028509648970 0.0907353503225750 0.6770786644650214 H
atom_frac 0.3827608331761426 0.8229363531985148 0.0907255458375076 H
atom_frac 0.6172733855175637 0.5907161091719927 0.1770811458571585 H
atom_frac 0.6172973622031250 0.3229235786064137 0.5907261818037383 H
atom_frac 0.6172939115900817 0.9092636573559787 0.3229198716586906 H
atom_frac 0.6172514803697740 0.1770664448098245 0.9092717268926193 H
atom_frac 0.2474061733594652 0.4369411348731377 0.1316678985472420 H
atom_frac 0.2474372338326205 0.3683275150460831 0.4369437314250816 H
atom_frac 0.2474034350205870 0.0630586685681465 0.3683256845554437 H
atom_frac 0.2473620079103115 0.1316842910269642 0.0630580640490095 H
atom_frac 0.7525750381537792 0.5630540825088131 0.8683356912463508 H
atom_frac 0.7525698961328048 0.6316759146780484 0.5630554364491828 H
atom_frac 0.7526011029269598 0.9369403391291585 0.6316722198548630 H
atom_frac 0.7526425301744343 0.8683172435318625 0.9369398403834450 H
atom_frac 0.1350878771463115 0.4655576279884671 0.0751867250362181 C
atom_frac 0.1350933927037589 0.4248172993243386 0.4655690345841988 C
atom_frac 0.1350805169010628 0.0344338932767130 0.4248094044423566 C
atom_frac 0.1350646351528511 0.0751950686100784 0.0344378341941507 C
atom_frac 0.8648933343669329 0.5344375893934766 0.9248168647573677 C
atom_frac 0.8649085536811685 0.5751867621155781 0.5344320284342102 C
atom_frac 0.8649292046358784 0.9655651144367782 0.5751884999675028 C
atom_frac 0.8649321275647213 0.9248064659134059 0.9655588068135470 C
atom_frac 0.1931113819406605 0.4246382911976028 0.9954648164177298 C
atom_frac 0.1931337368773711 0.5045377081136095 0.4246360074125447 C
atom_frac 0.1931093622047086 0.0753579267096498 0.5045363249042367 C
atom_frac 0.1931054632247040 0.9954722580124197 0.0753593989612114 C
atom_frac 0.8068672378037222 0.5753575578971565 0.0045394050943344 C
atom_frac 0.8068630258495519 0.4954650898793531 0.5753650555952416 C
atom_frac 0.8068951756657655 0.9246398175624221 0.4954622112077232 C
atom_frac 0.8068964830911796 0.0045299082592223 0.9246391371897216 C
atom_frac 0.5096770936361282 0.3106809063388951 0.0487317334881681 C
atom_frac 0.5097149100909349 0.4512619824590304 0.3106852778594699 C
atom_frac 0.5096988032996208 0.1893211671265931 0.4512561184570386 C
atom_frac 0.5096946806766099 0.0487539890160207 0.1893215255861023 C
atom_frac 0.4903015261683948 0.6893162061921602 0.9512731197476894 C
atom_frac 0.4902870362427622 0.5487414472765694 0.6893170485788358 C
atom_frac 0.4903031428625654 0.8106791040320972 0.5487462079535915 C
atom_frac 0.4902968984261734 0.9512475455078686 0.8106770105601978 C
atom_frac 0.0505941874742319 0.4609936564908992 0.9185825511449436 C
atom_frac 0.0506068582665691 0.5814167113968766 0.4609860749747908 C
atom_frac 0.0506017109031234 0.0390225178660799 0.5814243006317810 C
atom_frac 0.0506308204365737 0.9185809937894265 0.0390175684202561 C
atom_frac 0.9493896158252469 0.5390015609046729 0.0814216703611379 C
atom_frac 0.9493924963147509 0.4185867183029687 0.5390130929001558 C
atom_frac 0.9494028270016486 0.9609758581213728 0.4185742354857139 C
atom_frac 0.9493737175880385 0.0814192773331115 0.9609797042884123 C
atom_frac 0.1051656720409895 0.4160143428373218 0.8366679641849045 C
atom_frac 0.1051536366750412 0.6633329164830996 0.4160037888301246 C
atom_frac 0.1051577420964733 0.0839990137379942 0.6633344560578819 C
atom_frac 0.1052089664309577 0.8366701832189277 0.0839960548158771 C
atom_frac 0.8948388657786951 0.5839834014679397 0.1633343622033578 C
atom_frac 0.8948405341796717 0.3366679863390302 0.5839953790231290 C
atom_frac 0.8948467958082988 0.9159993622494584 0.3366640800596130 C
atom_frac 0.8948007552173538 0.1633307196351765 0.9160012178978717 C
atom_frac 0.3748909219464026 0.3532985328137457 0.9867345373993498 N
atom_frac 0.3749106879199999 0.5132647992484036 0.3533043314021780 N
atom_frac 0.3749171508884360 0.1467127183167989 0.5132558332189703 N
atom_frac 0.3748899221133116 0.9867500927453463 0.1466998872758580 N
atom_frac 0.6250876976523045 0.6466947894250198 0.0132703158032967 N
atom_frac 0.6250938502765565 0.4867392621885429 0.6466954681905717 N
atom_frac 0.6250847952301015 0.8532856576570326 0.4867420711860361 N
atom_frac 0.6251120242284077 0.0132527052472113 0.8532992805933259 N
atom_frac 0.6427029245221547 0.2632980345789449 0.0967048338733463 N
atom_frac 0.6427549460110812 0.4032933073075498 0.2632975481418640 N
atom_frac 0.6427336573362655 0.2367048699138863 0.4032886802825927 N
atom_frac 0.6427386556933430 0.0967197049311537 0.2367098637774560 N
atom_frac 0.3572912460510125 0.7366997097381898 0.9033025462175599 N
atom_frac 0.3572573673637721 0.5967069638613932 0.7367022514169930 N
atom_frac 0.3572682889288288 0.7632972963909452 0.5967136461446427 N
atom_frac 0.3572529234098739 0.9032824613302350 0.7632911992252500 N
