#=======================================================
# FHI-aims file: ./geometry.in
# Created using the Atomic Simulation Environment (ASE)
# Fri Jan 14 15:06:22 2022
#=======================================================
lattice_vector 11.8506637799999996 0.0022757490000000 -2.6808147080000002 
lattice_vector -5.9008251129999998 15.4471439910000008 -7.7693292390000002 
lattice_vector -0.0144317230000000 -0.0406928730000000 18.2606346270000017 
atom_frac 0.9999893777962823 0.5000008522883873 0.0000217666613053 Cd
atom_frac 0.0000100704052385 0.9999953665152501 0.9999893546866260 Cd
atom_frac 0.4999852484965929 0.5000133513966106 0.4999911747507966 Cd
atom_frac 0.9999828370655309 0.9999829553772059 0.4999993536679524 Cd
atom_frac 0.6189306365633199 0.4896868099140902 0.7596218142078752 H
atom_frac 0.2457070473700469 0.1209027188231815 0.5020749980573171 H
atom_frac 0.7143771417040340 0.9166882388944020 0.9829968044751284 H
atom_frac 0.0691343506302075 0.3913989683959898 0.0652093345929074 H
atom_frac 0.7406047929457459 0.6138383240311781 0.2048125017039907 H
atom_frac 0.3597434065710913 0.9032323649624273 0.1255523197844182 H
atom_frac 0.6235758166757109 0.2197621504189655 0.3540345587011516 H
atom_frac 0.2338931913961344 0.8736788919849799 0.7776774224261940 H
atom_frac 0.1664234470952692 0.2909257462514105 0.3760027223427329 H
atom_frac 0.0850440284790395 0.0849411923724190 0.3315658790366740 H
atom_frac 0.4706668255800324 0.6507975621018574 0.8801239061388981 H
atom_frac 0.9996054009139782 0.7526834168302087 0.0841417711071200 H
atom_frac 0.1017521150778364 0.0246993189860945 0.1866542854328372 H
atom_frac 0.8753815593376684 0.0857586929099270 0.7099284085417211 H
atom_frac 0.2458556094994079 0.3316667348986330 0.2463162692271083 H
atom_frac 0.7906340185442886 0.6246721217515584 0.9151355923393040 H
atom_frac 0.2546601969970865 0.2336397830881012 0.3987655056098305 H
atom_frac 0.9154537378584064 0.8131942129863459 0.8382657959900043 H
atom_frac 0.5907872287784670 0.1208059088139137 0.7716523691331715 H
atom_frac 0.4092476220935735 0.8791872384325856 0.2283744375710979 H
atom_frac 0.8335995576724715 0.7090912029266081 0.6239662094743893 H
atom_frac 0.0004182680748954 0.2473161422534318 0.9158609312386687 H
atom_frac 0.5008229187380664 0.3360264893965308 0.7040376273009982 H
atom_frac 0.1805271767383088 0.7708018096818064 0.6506637469467120 H
atom_frac 0.2571947404823121 0.5015616566352321 0.3811586633944940 H
atom_frac 0.8726654387641516 0.4090209841796054 0.6141617344761413 H
atom_frac 0.8097572379154130 0.9518763096573436 0.3197911615410616 H
atom_frac 0.8594446256666971 0.2413675116831797 0.7304617682531784 H
atom_frac 0.5352179900285349 0.7941917729483592 0.4082458126385688 H
atom_frac 0.9228090036306468 0.8375301129087588 0.0242876084775856 H
atom_frac 0.3764055378179236 0.7802626208005848 0.6459523963312321 H
atom_frac 0.5293582360809310 0.3492285287824189 0.1198749555840877 H
atom_frac 0.8558163140895656 0.6015264836118348 0.8348840317287767 H
atom_frac 0.0207450761457295 0.1658859355135363 0.7669928477548850 H
atom_frac 0.6773720367464975 0.6733573895141092 0.6079708838339782 H
atom_frac 0.8575615042079292 0.3674758499739781 0.0472800851098468 H
atom_frac 0.5101235524819502 0.3204579910550082 0.3676723454199404 H
atom_frac 0.9308823914430845 0.6086019097700871 0.9348022216953566 H
atom_frac 0.1246211929725475 0.9141988259558148 0.2900878367050266 H
atom_frac 0.1405482022981273 0.7586022911731262 0.2695478415744501 H
atom_frac 0.5440893791519839 0.7778463511202814 0.9039125718500427 H
atom_frac 0.7314931662727915 0.0172205412104418 0.9336493523655918 H
atom_frac 0.8347803531935156 0.6318462270495856 0.3351790855126636 H
atom_frac 0.4991869131184927 0.6639621498483590 0.2959967314138934 H
atom_frac 0.0845191681298090 0.1868239163884908 0.1616568539631800 H
atom_frac 0.0040305168530635 0.9340543365708810 0.3258802806336545 H
atom_frac 0.2093817386545921 0.3753352414638157 0.0848802214251662 H
atom_frac 0.8982673292127785 0.9753273854293597 0.8133314172511489 H
atom_frac 0.8704331776415586 0.7297528569634649 0.4889884966319896 H
atom_frac 0.2594176132170460 0.3861924559735712 0.7952460136095993 H
atom_frac 0.1441728563468203 0.3984393980228235 0.1651113250116296 H
atom_frac 0.2022235231677240 0.9334397831491825 0.9165965552221421 H
atom_frac 0.7542904627302534 0.8790036281453341 0.4979296580680669 H
atom_frac 0.2698029069860368 0.6462093358710918 0.8658190151633747 H
atom_frac 0.9149449024817498 0.9150395174065409 0.6684061796495724 H
atom_frac 0.7453595734040233 0.7663791269314257 0.6012103571649730 H
atom_frac 0.6402707212545024 0.0967632974857793 0.8744451334374332 H
atom_frac 0.1249638602120982 0.3817198956395417 0.8801683418472664 H
atom_frac 0.8750865538237845 0.6183264395875838 0.1198987130141233 H
atom_frac 0.0771958669776822 0.1624064565563401 0.9756400810283951 H
atom_frac 0.7978024033350549 0.0665999049446526 0.0834032900197030 H
atom_frac 0.2856263558866416 0.0833506296399378 0.0169364223161566 H
atom_frac 0.4899097901217002 0.6795848266414380 0.6322872052806827 H
atom_frac 0.5958044390227569 0.8648753483951949 0.2189558422952727 H
atom_frac 0.7428379696616856 0.4984934545001493 0.6187983581644260 H
atom_frac 0.3810875945407375 0.5103017880165835 0.2403973312264682 H
atom_frac 0.9792465150892795 0.8340780168580297 0.2330075197989102 H
atom_frac 0.7661115177716694 0.1263283905930237 0.2223071632767031 H
atom_frac 0.4041712716656178 0.1350854477927683 0.7810742561949624 H
atom_frac 0.2685101609159800 0.9827179923899577 0.0662866129968974 H
atom_frac 0.7970141341880180 0.2970127677931131 0.6323661488474528 H
atom_frac 0.4647464188490389 0.2057683666584751 0.5917801567916853 H
atom_frac 0.1652367442654634 0.3681520169374720 0.6648155210316772 H
atom_frac 0.2029870395771667 0.7029771453476314 0.3676598140243783 H
atom_frac 0.9959651958380320 0.0659076999434376 0.6741302817429471 H
atom_frac 0.4559272724520013 0.2221900292830981 0.0960598612655801 H
atom_frac 0.7301749775913392 0.3538083935679310 0.1341978395903070 H
atom_frac 0.8194758579847274 0.2292003570565981 0.3493447023562409 H
atom_frac 0.1902539515946700 0.0480371653050682 0.6802168926970182 H
atom_frac 0.1424511102708904 0.6325522746444462 0.9527528626224112 H
atom_frac 0.1295833236214249 0.2702492725637669 0.5110065803094698 H
atom_frac 0.1273174742116722 0.5910102842528245 0.3858342376025446 H
atom_frac 0.7541502001123135 0.6683495721724101 0.7536536983827418 H
atom_frac 0.3226562549229683 0.3266751816527177 0.3920306616129849 H
atom_frac 0.3558482413671840 0.6843004759727690 0.2203778224421453 C
atom_frac 0.7433101707482378 0.7008216511724757 0.5857179228761354 C
atom_frac 0.8269867659204807 0.3149243885982926 0.8764284414380797 C
atom_frac 0.0913474228225155 0.8507178217973677 0.6236613674330015 C
atom_frac 0.7196500668424475 0.8602452564586542 0.9308776751047886 C
atom_frac 0.6709825069121748 0.5359934190095287 0.3149079554475448 C
atom_frac 0.3749295986293432 0.2186893037423658 0.1127570879298858 C
atom_frac 0.1235773559229543 0.7809718823194772 0.3301892730803785 C
atom_frac 0.4056158504692320 0.4829276948050420 0.6413093211991736 C
atom_frac 0.1734704854184839 0.7539240370417061 0.5270685543127839 C
atom_frac 0.1565375759271247 0.8940562170934142 0.7812513440020225 C
atom_frac 0.4874119535604748 0.4385503872741340 0.3143107344197772 C
atom_frac 0.9805752577278354 0.1502171611500458 0.9529349615161281 C
atom_frac 0.0189835037457087 0.0818933538268070 0.2784671939549456 C
atom_frac 0.6320801906247198 0.7073298737679324 0.8204106181169877 C
atom_frac 0.8426189670212880 0.5862806747364646 0.8851572378882084 C
atom_frac 0.6457235327225420 0.4726648024999207 0.2265941846300946 C
atom_frac 0.8646232470189971 0.2210877577831737 0.5362633062017395 C
atom_frac 0.9573081885528721 0.1155997708698706 0.7014717074981931 C
atom_frac 0.2803551801541104 0.1397852305839821 0.0690686712340636 C
atom_frac 0.7716933057149332 0.6145717487262131 0.3643015238381436 C
atom_frac 0.2589518542882914 0.2785369491870568 0.1963407776529067 C
atom_frac 0.8434758817879596 0.1059601452478987 0.2187400320949209 C
atom_frac 0.2339399492525159 0.4419403850212690 0.8273967647129793 C
atom_frac 0.2767946948330930 0.5172669497608525 0.8224282908516614 C
atom_frac 0.9721079283128660 0.9524921274238594 0.8027281891847479 C
atom_frac 0.7597564738074283 0.2275972128359313 0.8514005305650441 C
atom_frac 0.7915419373022629 0.3855135524972512 0.5584443909681198 C
atom_frac 0.9810112254972480 0.9181074497392744 0.7215148128722929 C
atom_frac 0.2839252631088271 0.3552097070590036 0.5094659837610179 C
atom_frac 0.1703506136846471 0.5794465061601102 0.9164084083192704 C
atom_frac 0.7644873280888902 0.3593898029586384 0.8423051493951377 C
atom_frac 0.2408210360955749 0.6947975444925731 0.5169397255895445 C
atom_frac 0.1526500990774053 0.7916922180514804 0.6040635692075468 C
atom_frac 0.8116718527717097 0.1803626543722530 0.8877489209081942 C
atom_frac 0.0495520294939453 0.8760269373697939 0.5614499012525158 C
atom_frac 0.7591648564730349 0.3052142947943891 0.4830533460591794 C
atom_frac 0.5330006884493199 0.6237438377585247 0.7732029915562748 C
atom_frac 0.5909246478596587 0.3371606763177226 0.4208184405976851 C
atom_frac 0.8593146508373695 0.0707751007031376 0.1397973545933766 C
atom_frac 0.0757688351903027 0.8870358243107433 0.7073114290642835 C
atom_frac 0.4091036482595030 0.6628821589443562 0.5791474958494264 C
atom_frac 0.3605101749394989 0.8117406670183699 0.2075399653694987 C
atom_frac 0.7661028026639797 0.5581007506090500 0.1726620243841095 C
atom_frac 0.7747141500932174 0.4911828815554244 0.8462354637216193 C
atom_frac 0.1353303296157833 0.7788845991612734 0.4637306753633934 C
atom_frac 0.3290122080657484 0.4640242610263813 0.6850910869655281 C
atom_frac 0.3542814504958116 0.5273548387253868 0.7734126759327323 C
atom_frac 0.7577763568669977 0.4131251832398632 0.1311949785597334 C
atom_frac 0.0426792602740488 0.8843609458094973 0.2985288657337434 C
atom_frac 0.4069772163500645 0.1735640828987286 0.6152320136183105 C
atom_frac 0.4669944890165638 0.3762815790924705 0.2267840769962959 C
atom_frac 0.6250763223902921 0.7813425085372856 0.8872008737300020 C
atom_frac 0.0279027840768293 0.0475255145632474 0.1972573044376063 C
atom_frac 0.2620784110080693 0.8865410706853825 0.1052763586916895 C
atom_frac 0.2402421506592986 0.7724095732785301 0.1486409989887248 C
atom_frac 0.8264917589655596 0.2460606314575102 0.4729302950542689 C
atom_frac 0.2073067920540836 0.3307105220208230 0.5493549501700059 C
atom_frac 0.5810064129669001 0.2274731599106161 0.7547483803945738 C
atom_frac 0.5943655123475794 0.5170970850819856 0.3586809244994241 C
atom_frac 0.4520733779998379 0.6042158471573701 0.8126238278095387 C
atom_frac 0.8390994443626311 0.5605830065514752 0.1242478217188675 C
atom_frac 0.4070235516239008 0.6348598369828619 0.2496161776926298 C
atom_frac 0.5453374111881215 0.8214760263843813 0.3044640220466872 C
atom_frac 0.1609472688011166 0.4394626782491001 0.8758178654611156 C
atom_frac 0.3448004900451663 0.7179621778618069 0.5865848030362952 C
atom_frac 0.2788980192592020 0.5635993176176227 0.4390084317034634 C
atom_frac 0.6441405768624264 0.3157102714636649 0.7796924294490850 C
atom_frac 0.8296729208625350 0.4205848817714539 0.0836351977738942 C
atom_frac 0.7927013073310504 0.6692967758122282 0.4506356159967809 C
atom_frac 0.0625897448588120 0.8027671799133032 0.0811605982963001 C
atom_frac 0.7142796448381289 0.8747959902927603 0.4358292910193383 C
atom_frac 0.3417674458041373 0.5486237293106128 0.2181590978705187 C
atom_frac 0.7160696944071887 0.6448034074832732 0.4905201992619935 C
atom_frac 0.2544058669114050 0.0844259953090543 0.6634938265392805 C
atom_frac 0.1573900751377195 0.4137182804062079 0.1148611318190405 C
atom_frac 0.1883452376072369 0.8196304525111557 0.1122615705807846 C
atom_frac 0.6582365970350779 0.4513752925133900 0.7818843046917507 C
atom_frac 0.9374264000243641 0.1972206914327614 0.9188283599152031 C
atom_frac 0.8764053319081954 0.2189979065524170 0.6698144611316863 C
atom_frac 0.3679190375501946 0.2926935535522830 0.1795586745955831 C
atom_frac 0.7379327628363723 0.1134351351987348 0.8947074540662000 C
atom_frac 0.4546490341937073 0.1785029175996087 0.6955748260806586 C
atom_frac 0.5125637277343387 0.5614782552704939 0.6856710109801014 C
atom_frac 0.8309566647174194 0.8026599012231374 0.8503729582908760 C
atom_frac 0.2422423723465953 0.5869016553191314 0.8688416054454818 C
atom_frac 0.7232337567046158 0.4827624719555174 0.1776064385164559 C
atom_frac 0.5929985070196151 0.8263882808326314 0.3847917608564798 C
atom_frac 0.2355010345362628 0.6406267902241751 0.1577724514267159 C
atom_frac 0.5479347546255440 0.3958050606841540 0.1873725338703736 C
atom_frac 0.2283162909716693 0.3854368528774826 0.6356925549892054 C
atom_frac 0.2252853364934140 0.5088239235408808 0.1538133196139952 C
atom_frac 0.6552018747114092 0.2820658186504589 0.4133989419752809 C
atom_frac 0.5929747315256436 0.3651411522986053 0.7504365260339936 C
atom_frac 0.4189771237132404 0.7725304167731296 0.2453027116590575 C
atom_frac 0.7888443120391954 0.0694874307741173 0.9295868686072026 C
atom_frac 0.1690276906091128 0.1973608521619212 0.1495634414776318 C
atom_frac 0.2567055295230816 0.2991992281537180 0.4142680375174946 C
atom_frac 0.9503899976362219 0.1239324317932287 0.4385280968357178 C
atom_frac 0.1730036596838075 0.6850895910342416 0.1236401358711133 C
atom_frac 0.6394941716185302 0.1882589827542418 0.7924960821884427 C
atom_frac 0.8426757375159254 0.2504837916348990 0.6150196193535608 C
atom_frac 0.0194345292814191 0.8497427784732706 0.0470176313090816 C
atom_frac 0.1407073423586239 0.9292516216542167 0.8601953014381891 C
atom_frac 0.2084556819142449 0.6145150866401040 0.4415372878968782 C
atom_frac 0.8473255712772884 0.2082956869208203 0.3959358900925523 C
atom_frac 0.1573031044934296 0.7494918277283135 0.3849854833252380 C
atom_frac 0.0715962830489260 0.8454756003583555 0.3547617486296132 C
atom_frac 0.9242262380001874 0.1129656490967363 0.2926791276453216 C
atom_frac 0.7410393789172927 0.7214806202515832 0.8036160869679492 C
atom_frac 0.0778142269842661 0.8417184869839930 0.4827320493609192 C
atom_frac 0.9221257985440303 0.1582402437137347 0.5172492166109564 C
atom_frac 0.2857097376314143 0.1251194381710761 0.5641818691765507 C
atom_frac 0.6262921383183695 0.8678595987995267 0.2813138884348020 C
atom_frac 0.7455960235804112 0.9154959084399081 0.3365186392143114 C
atom_frac 0.2111592683921727 0.9304634398048961 0.0703631449496951 C
atom_frac 0.9283712977714131 0.1544825134009075 0.6452326098463885 C
atom_frac 0.9086186410265780 0.1492609887635226 0.3763256930243131 C
atom_frac 0.3737013595604281 0.1320979496214889 0.7187130585324866 C
atom_frac 0.7211322380365887 0.4364525596747626 0.5609495919880770 C
atom_frac 0.0909262263268927 0.9130830774946403 0.0403682255054461 N
atom_frac 0.8224409062837879 0.8727929280381801 0.9134204606867015 N
atom_frac 0.9090768709526172 0.0868651644813596 0.9595669080799425 N
atom_frac 0.9498215070517873 0.1256083249140687 0.5711426853738715 N
atom_frac 0.1775541449471660 0.1272323573561209 0.0865166994283229 N
atom_frac 0.2100479686578111 0.0809230199155166 0.5872664059903485 N
atom_frac 0.6205108005602469 0.5709149677603166 0.4452337500141680 N
atom_frac 0.6225372512047047 0.4133060378162839 0.4935659623922675 N
atom_frac 0.3775031699511545 0.5867510078991247 0.5063886333026204 N
atom_frac 0.7899461678715198 0.9189833291328994 0.4127388510035743 N
atom_frac 0.0505314127917912 0.9593903861188480 0.8727925101546887 N
atom_frac 0.3794702349554058 0.4291091596202605 0.5547545271344916 N
atom_frac 0.8249034134788858 0.4458490128838192 0.8748749045057593 N
atom_frac 0.1294038137880874 0.5067893776515434 0.9198903280305543 N
atom_frac 0.9494976158092641 0.0406453895947578 0.1271968162621917 N
atom_frac 0.1750890206632575 0.5541656124368969 0.1251931471416368 N
atom_frac 0.0501234618237801 0.8743484670154656 0.4288401243159682 N
atom_frac 0.8706278452223869 0.4932498168111650 0.0801681971328845 N
atom_frac 0.0617951643623300 0.6459814253047611 0.0700054399580877 O
atom_frac 0.9925049690200323 0.9300610578604276 0.5761641204980846 O
atom_frac 0.0074237632171830 0.0698885794658395 0.4238050470652723 O
atom_frac 0.9381905769350851 0.3540248150565262 0.9300739427419912 O
atom_frac 0.4157029339710617 0.4240290207090139 0.3537075101857282 O
atom_frac 0.5842482743161597 0.5760131970853524 0.6462654656934178 O
