#=======================================================
# FHI-aims file: ./geometry.in
# Created using the Atomic Simulation Environment (ASE)
# Fri Jan 14 15:06:22 2022
#=======================================================
lattice_vector -11.0464656049999999 0.0000000000000000 -3.6986550000000000 
lattice_vector -5.5363196639999996 -17.3946390370000010 -1.8493280000000001 
lattice_vector -11.0526387459999995 0.0158781250000000 14.6405143169999992 
atom_frac 0.4235681147999131 0.5979465904861384 0.2547596086569754 Cu
atom_frac 0.7768523936826879 0.9012714776024068 0.2451188183410268 Cu
atom_frac 0.6786511965512219 0.7451513999717175 0.0982251004609368 Cu
atom_frac 0.0219489076930657 0.7544494059496427 0.4015013216690093 Cu
atom_frac 0.5763564904066950 0.4019373549959511 0.7453780368353407 Cu
atom_frac 0.2232279794791123 0.0988060420108923 0.7548394696536036 Cu
atom_frac 0.3215202665667007 0.2548887204918343 0.9016988818418169 Cu
atom_frac 0.9784056426839455 0.2454256857354550 0.5983838631077633 Cu
atom_frac 0.5003134496099687 0.4997991858928116 0.4998341801639300 Cu
atom_frac 0.0000590059754871 0.0000688746968223 0.9999953073814963 Cu
atom_frac 0.9999580084604246 0.4998826150856387 0.9999701026605196 Cu
atom_frac 0.9999175400676774 0.0000516680024276 0.4999800827859533 Cu
atom_frac 0.9613899028687313 0.7575745237434501 0.5652672557022671 H
atom_frac 0.9482999397202575 0.7271029300680423 0.7017838238833322 H
atom_frac 0.1284105777069724 0.6298673554901056 0.7365661839871933 H
atom_frac 0.3226695917002257 0.5618294410236827 0.6329668626763337 H
atom_frac 0.1712121186590919 0.6318679433074194 0.2339566469070462 H
atom_frac 0.3506747564750086 0.6713152742924038 0.0419996908354961 H
atom_frac 0.2417930044249843 0.6470555927578798 0.0055719989242817 H
atom_frac 0.2123593668793546 0.7447555674893208 0.0304990213151585 H
atom_frac 0.9999959334944324 0.6766899027224296 0.2019506610083754 H
atom_frac 0.0031577682098814 0.7524919009844664 0.1332018667662282 H
atom_frac 0.0168994612296629 0.6582736808459443 0.1047394369639960 H
atom_frac 0.7845938761938952 0.7422363868468549 0.9348729354457037 H
atom_frac 0.8772053189180650 0.7726779850652787 0.7982455136864673 H
atom_frac 0.9946126133578229 0.8700048249592597 0.7633074191536410 H
atom_frac 0.0174934330155379 0.9379477301481881 0.8667397127336544 H
atom_frac 0.5373060361698663 0.8674806742838398 0.2659760356301319 H
atom_frac 0.5643350349340179 0.8280672782602706 0.4579510293855763 H
atom_frac 0.3946592360738206 0.8524992939488667 0.4942332635595009 H
atom_frac 0.4878909911625515 0.7546972425015283 0.4695841312088548 H
atom_frac 0.3789356929806613 0.8227444779870224 0.2980965491383430 H
atom_frac 0.3889530819519960 0.7470092513510095 0.3669378185622634 H
atom_frac 0.2802614390518913 0.8413923705720661 0.3952969627591401 H
atom_frac 0.5270814119709041 0.4349731438082287 0.2576391943762530 H
atom_frac 0.6503856849691370 0.2982763697821724 0.2273433184072786 H
atom_frac 0.8651845941756166 0.2632438085882426 0.1298030540506901 H
atom_frac 0.9560930522786463 0.3665078817321755 0.0618654247092892 H
atom_frac 0.4050894968611159 0.7658633404132400 0.1320280675090829 H
atom_frac 0.3922775240048821 0.9579675214784229 0.1712573296142709 H
atom_frac 0.2470214627154093 0.9941546862891143 0.1468633696405491 H
atom_frac 0.2423570074116057 0.9696800588201027 0.2446513396668450 H
atom_frac 0.2018742393625742 0.7980340328880046 0.1765914633040070 H
atom_frac 0.1359542488721460 0.8669158323417532 0.2524214317022954 H
atom_frac 0.1216542123302844 0.8951953397018639 0.1580666305690883 H
atom_frac 0.7194290687183338 0.0645327437425820 0.2420804389341030 H
atom_frac 0.6755162754355338 0.2011904732409562 0.2724288736624133 H
atom_frac 0.7578728393620362 0.2361953427342128 0.3698628825608168 H
atom_frac 0.8843107278375937 0.1328972816560068 0.4377244419425353 H
atom_frac 0.8030653140306395 0.7338734039234749 0.3679880403614746 H
atom_frac 0.0218909451847579 0.5417862613039617 0.3285306412577356 H
atom_frac 0.8883864733286870 0.5056624592608754 0.3530614228468353 H
atom_frac 0.9569620838919161 0.5300657675671587 0.2552374856026491 H
atom_frac 0.6763906409698419 0.7017239798943321 0.3234219323134156 H
atom_frac 0.7553839619863252 0.6329536329809001 0.2475086233744008 H
atom_frac 0.6751759353624536 0.6045568662159652 0.3418832618251316 H
atom_frac 0.0385832169341427 0.2425439838231610 0.4348781231921848 H
atom_frac 0.0514205725826286 0.2729776793909906 0.2984104334835678 H
atom_frac 0.8711858758886348 0.3701679129507979 0.2637105362769462 H
atom_frac 0.6769060148116280 0.4380431568105009 0.3673352708016895 H
atom_frac 0.8286972312487605 0.3681464712804113 0.7661471784676267 H
atom_frac 0.6493435901482835 0.3286375921324876 0.9580658379682705 H
atom_frac 0.7582546040103323 0.3529162071988807 0.9944520862301188 H
atom_frac 0.7876363039958245 0.2551910003670629 0.9695941350775785 H
atom_frac 0.9999812018678111 0.3233152555573469 0.7980895461818706 H
atom_frac 0.9969265862761956 0.2474879350074558 0.8668086104119369 H
atom_frac 0.9830611880963499 0.3417314739433904 0.8952969464114560 H
atom_frac 0.2154961508594440 0.2579091082614440 0.0652370832431046 H
atom_frac 0.1228071302437499 0.2274352877523639 0.2018333228026705 H
atom_frac 0.0054090849177086 0.1300888434944270 0.2367077552537964 H
atom_frac 0.9826255442831382 0.0621786627746346 0.1332269879547427 H
atom_frac 0.4628754312168010 0.1324714671147618 0.7339250171632871 H
atom_frac 0.4357893705484769 0.1719458215100502 0.5419719952948654 H
atom_frac 0.6054443106673232 0.1475293372956016 0.5057001141385129 H
atom_frac 0.5121947914248961 0.2453330677356788 0.5302992073681452 H
atom_frac 0.6210910133861204 0.1772824449630832 0.7018547674628338 H
atom_frac 0.6111333102921886 0.2530239818211583 0.6329986370267874 H
atom_frac 0.7198188657197517 0.1586184634756193 0.6046631300603880 H
atom_frac 0.4729453730926420 0.5649669988317284 0.7423428455864853 H
atom_frac 0.3495405094106800 0.7016713157502392 0.7727146682758246 H
atom_frac 0.1348115357461806 0.7366452606499932 0.8702795401482534 H
atom_frac 0.0438510891726053 0.6333846034276148 0.9381805607855040 H
atom_frac 0.5947265974834933 0.2341596003099652 0.8679692621168301 H
atom_frac 0.6075797854842688 0.0420157811008579 0.8287720437404930 H
atom_frac 0.7528644693846118 0.0058648189339365 0.8531491201355977 H
atom_frac 0.7574765518692456 0.0303388749569535 0.7553649228059668 H
atom_frac 0.7979829456740928 0.2019665432868010 0.8234673819823899 H
atom_frac 0.8639386871038180 0.1330623362746763 0.7476518114024203 H
atom_frac 0.8781119308221363 0.1048139009254001 0.8420372466663225 H
atom_frac 0.2804271409813378 0.9355494179771353 0.7579249431347108 H
atom_frac 0.3243419511815159 0.7988801817164201 0.7275666849881048 H
atom_frac 0.2419552146882396 0.7639017445134114 0.6301188298588798 H
atom_frac 0.1155924579907575 0.8671882932438493 0.5622413281697192 H
atom_frac 0.1970305337691727 0.2660453839951131 0.6319021959514474 H
atom_frac 0.9779942542724238 0.4581296656077639 0.6713743208707968 H
atom_frac 0.1113956211644902 0.4943461022135267 0.6469282331642319 H
atom_frac 0.0429009368270029 0.4697875295384434 0.7447038239815242 H
atom_frac 0.3236751749198916 0.2982890296655397 0.6764022659537191 H
atom_frac 0.2447193865054941 0.3671673747112649 0.7522266807558537 H
atom_frac 0.3248433474217192 0.3954778655837927 0.6578055628947226 H
atom_frac 0.3618539878622399 0.5955774979424575 0.4103504203821303 C
atom_frac 0.2542702823602382 0.6520130546943504 0.3912133088770133 C
atom_frac 0.1460022862702813 0.6746507804740745 0.5219005630017577 C
atom_frac 0.0384886767662561 0.7137245672664249 0.5807498957482552 C
atom_frac 0.0325909757230391 0.6968319526518910 0.6568965685501524 C
atom_frac 0.1340765313626802 0.6419523258415225 0.6763384830308397 C
atom_frac 0.2421263656861468 0.6038394098660544 0.6190007280497413 C
atom_frac 0.2496608492479026 0.6191638502334910 0.5411016458623266 C
atom_frac 0.2357080644610575 0.6387346435226887 0.1768826296620460 C
atom_frac 0.2506034574675055 0.6841846236547936 0.0456327898192725 C
atom_frac 0.0416432612993915 0.6904679676318393 0.1417713720518563 C
atom_frac 0.8682766822777592 0.9040194117941949 0.0895162748171219 C
atom_frac 0.7980427748275286 0.8476597145724368 0.1086249915492347 C
atom_frac 0.8428994513675431 0.8251461319263027 0.9780196109322786 C
atom_frac 0.8332557046745918 0.7860844713008105 0.9192288679290500 C
atom_frac 0.8863682142916925 0.8029776409978167 0.8430604960489847 C
atom_frac 0.9522439964051941 0.8579008997340621 0.8235531834853020 C
atom_frac 0.9649557756668441 0.8959982273915370 0.8808183124646548 C
atom_frac 0.9101045755310787 0.8806680781064029 0.9587611931132968 C
atom_frac 0.5517913546780446 0.8604598399778849 0.3229803424591892 C
atom_frac 0.4807797951958362 0.8152232243945788 0.4543183104434976 C
atom_frac 0.3741990816872657 0.8089951562044176 0.3582743464565681 C
atom_frac 0.7726417001298245 0.5893305279302296 0.0958429808931315 C
atom_frac 0.6454768274915280 0.6086374466939971 0.1523284168245241 C
atom_frac 0.6684045327130335 0.4780234213152424 0.1747602447043023 C
atom_frac 0.6197439116057736 0.4192501604552773 0.2138292351163927 C
atom_frac 0.6898577098378594 0.3430521223441615 0.1969904540677235 C
atom_frac 0.8107096708924360 0.3234855896753571 0.1420234488595400 C
atom_frac 0.8616125418245771 0.3806971901916326 0.1039295120566949 C
atom_frac 0.7914589424139534 0.4586242505366228 0.1192389969950300 C
atom_frac 0.4124656806135147 0.8229280221981978 0.1389269557971460 C
atom_frac 0.2958639840909494 0.9543189405924083 0.1841210959860717 C
atom_frac 0.1832369793865425 0.8582215099196800 0.1904115783181625 C
atom_frac 0.9578868960336775 0.9100621507661157 0.4038646762385768 C
atom_frac 0.9067039505478293 0.8908496659048806 0.3475457365082948 C
atom_frac 0.8209616312303041 0.0214922491802341 0.3249701449918023 C
atom_frac 0.7524284473584899 0.0802333430892332 0.2859305975345735 C
atom_frac 0.7294459296062854 0.1564141470066289 0.3027830717173715 C
atom_frac 0.7758525169534990 0.1759472930435209 0.3577029422088885 C
atom_frac 0.8459872778606439 0.1187160876789619 0.3957326863485522 C
atom_frac 0.8691607169134058 0.0407665776457549 0.3803914455691740 C
atom_frac 0.8744099416834317 0.6767804938647257 0.3610248728678584 C
atom_frac 0.9346343352523901 0.5454602058851774 0.3157419670369492 C
atom_frac 0.7319818899254499 0.6415783935960347 0.3095183178976555 C
atom_frac 0.6382752317043127 0.4042973459417282 0.5898930933913179 C
atom_frac 0.7459970455988199 0.3480394756062707 0.6090800266271331 C
atom_frac 0.8538821628546884 0.3253953719246852 0.4783334896433474 C
atom_frac 0.9613671542547592 0.2863491446215392 0.4194455734191110 C
atom_frac 0.9671324435592155 0.3032285545928488 0.3433184241761327 C
atom_frac 0.8655560044053556 0.3580507396633407 0.3239282581929005 C
atom_frac 0.7574759975365520 0.3960751509662400 0.3812970727382564 C
atom_frac 0.7501329953631030 0.3807581481268655 0.4591566739372157 C
atom_frac 0.7642731237317474 0.3611837568762866 0.8232128724602179 C
atom_frac 0.7494177381923843 0.3157538720198615 0.9544343756327792 C
atom_frac 0.9583668688023433 0.3095084445306923 0.8582670507173804 C
atom_frac 0.1318144079242602 0.0961116217359290 0.9104958776389650 C
atom_frac 0.2020645236930817 0.1524793415263446 0.8913588002460529 C
atom_frac 0.1572654874513475 0.1749877990280879 0.0220177113256241 C
atom_frac 0.1668597136543895 0.2140437304734064 0.0808300550494465 C
atom_frac 0.1136768439570658 0.1971476841105897 0.1569959982196778 C
atom_frac 0.0477967403662873 0.1422261243034981 0.1764751121991210 C
atom_frac 0.0351408333221599 0.1041402737339467 0.1191872980164916 C
atom_frac 0.0900351530422441 0.1194756056977581 0.0412539162786061 C
atom_frac 0.4483340623180823 0.1395452025345847 0.6769330405331502 C
atom_frac 0.5193246575809594 0.1848105710629112 0.5456043368553267 C
atom_frac 0.6258753596558504 0.1910340588724253 0.6416688279513495 C
atom_frac 0.2275237812385453 0.4104968580342571 0.9040533015430157 C
atom_frac 0.3544370501447816 0.3912797832803533 0.8477444683993056 C
atom_frac 0.3315624408461771 0.5219437940681501 0.8252797743870630 C
atom_frac 0.3803054048422181 0.5806808105322857 0.7861819277593014 C
atom_frac 0.3101459644776269 0.6568673845153795 0.8030575917038690 C
atom_frac 0.1892684725897026 0.6764023186433404 0.8580469413585803 C
atom_frac 0.1383433525047904 0.6191866689729081 0.8961135717331318 C
atom_frac 0.2086106718354015 0.5412693024799607 0.8807172413391130 C
atom_frac 0.5873821108490204 0.1770977875209780 0.8610644001600961 C
atom_frac 0.7039840097534694 0.0456816010375434 0.8158999050742325 C
atom_frac 0.8165982151108575 0.1417813716081326 0.8096536142818493 C
atom_frac 0.0421400112956576 0.0900038829608718 0.5961066582348948 C
atom_frac 0.0933320270303993 0.1091760762227167 0.6523715722223358 C
atom_frac 0.1789232199465970 0.9785910472327116 0.6750187098818685 C
atom_frac 0.2474299999088456 0.9198424989947680 0.7140793327973824 C
atom_frac 0.2704081133331329 0.8436691585134566 0.6972157601145810 C
atom_frac 0.2240105684413719 0.8241492173504807 0.6422766187881876 C
atom_frac 0.1539006389972712 0.8813786836199140 0.6042310710273284 C
atom_frac 0.1307303815110570 0.9593282056109657 0.6195854117311227 C
atom_frac 0.1256776576333037 0.3231250488317343 0.6388404324183696 C
atom_frac 0.0652334362338535 0.4544683778880766 0.6841731686847652 C
atom_frac 0.2680861189150291 0.3584483455764981 0.6902316685999212 C
atom_frac 0.3555061127265303 0.5807890590025407 0.4834347876737652 N
atom_frac 0.1516427103573717 0.6887770038562236 0.4457301517260818 N
atom_frac 0.1791365829664357 0.6699120071543944 0.1239158277747094 N
atom_frac 0.9200227836832295 0.9189343281212670 0.0164337021862907 N
atom_frac 0.7867251308343909 0.8109021607608752 0.0541865465081843 N
atom_frac 0.4734878613333390 0.8293365698559397 0.3760061611651366 N
atom_frac 0.8393393962733171 0.5163715517889000 0.0810393131115818 N
atom_frac 0.5976265564718588 0.5541449482209513 0.1890241121391228 N
atom_frac 0.3028610754905114 0.8759721676068607 0.1700239782596995 N
atom_frac 0.9367316195211399 0.9831447540401969 0.4186966439274473 N
atom_frac 0.8408179339665052 0.9452950097941863 0.3108351173253114 N
atom_frac 0.8490645531534822 0.6238207757413078 0.3298385547013682 N
atom_frac 0.6442714836638855 0.4189181121825384 0.5170224744213884 N
atom_frac 0.8484833241662170 0.3112214504818596 0.5545233901034339 N
atom_frac 0.8208808740162680 0.3299925583911757 0.8761385938617396 N
atom_frac 0.0800872192654364 0.0812231565025030 0.9835852033435587 N
atom_frac 0.2134394457806789 0.1891926562616533 0.9458273015637104 N
atom_frac 0.5265920243436567 0.1707133293058192 0.6239239254764827 N
atom_frac 0.1606236756493331 0.4834656041483639 0.9188535148814266 N
atom_frac 0.4023607311214544 0.4457596109901231 0.8110233699953967 N
atom_frac 0.6969530998385589 0.1240427507254864 0.8300019067968805 N
atom_frac 0.0631546796426932 0.0169603735774189 0.5812762093678144 N
atom_frac 0.1591219776483682 0.0547831109946557 0.6891519669915525 N
atom_frac 0.1509302330208653 0.3761364722646546 0.6699886601390902 N
atom_frac 0.5968649930544315 0.5893874338225301 0.5026830489524700 Cl
atom_frac 0.1893009609369399 0.9103985008734197 0.9959174977594074 Cl
atom_frac 0.0995601387946650 0.4957272624940216 0.0892291680306769 Cl
atom_frac 0.1854960089062202 0.0037147533109305 0.4104258503510891 Cl
atom_frac 0.4053218894621934 0.4097889776748857 0.4951055616371037 Cl
atom_frac 0.8108461852615391 0.0897622911519065 0.0039459143626389 Cl
atom_frac 0.9000681728074864 0.5039415985453672 0.9108255808176012 Cl
atom_frac 0.8143326777668487 0.9964801190151957 0.5896148201433392 Cl
atom_frac 0.4592676984259326 0.5618403318687581 0.3539315432627178 O
atom_frac 0.2635002009924319 0.6648850508784532 0.3190213660628842 O
atom_frac 0.3549635820849700 0.6195376490612999 0.1646148555287611 O
atom_frac 0.8756388320373244 0.9376071597388814 0.1459934447338825 O
atom_frac 0.7478515702714855 0.8348165172194654 0.1808764673467779 O
atom_frac 0.6398606235140248 0.8794434442321657 0.3351318795270046 O
atom_frac 0.8135094677120874 0.6456648452475945 0.0621560771383615 O
atom_frac 0.5826607183506383 0.6808192923084275 0.1647448380031733 O
atom_frac 0.5194687753787548 0.8351091957191698 0.1198514317261329 O
atom_frac 0.0215018931030284 0.8536145964554008 0.4375694268766210 O
atom_frac 0.9288793733278168 0.8185864013025678 0.3347354460910808 O
atom_frac 0.9746339145204883 0.6644825912575313 0.3800714061100053 O
atom_frac 0.5407311826661427 0.4380770748470511 0.6463349639369653 O
atom_frac 0.7367712624824422 0.3354669875881484 0.6812616682105174 O
atom_frac 0.6450209136074532 0.3802548323579487 0.8354607953650091 O
atom_frac 0.1244258283422395 0.0625192992251016 0.8540456046824616 O
atom_frac 0.2522096308851403 0.1653472700651832 0.8191192938250538 O
atom_frac 0.3602480576583815 0.1205840314251957 0.6647951359239102 O
atom_frac 0.1865444487921623 0.3541257664359775 0.9377606521443694 O
atom_frac 0.4175081587032707 0.3190747968251485 0.8351689243863377 O
atom_frac 0.4803314480984328 0.1649223351302354 0.8801095047177653 O
atom_frac 0.9785522862623143 0.1465428185497402 0.5623732107777217 O
atom_frac 0.0712517978293333 0.1814961718129169 0.6650908267218656 O
atom_frac 0.0254242191973406 0.3353740920846703 0.6198007746138712 O
