#=======================================================
# FHI-aims file: ./geometry.in
# Created using the Atomic Simulation Environment (ASE)
# Fri Jan 14 15:06:22 2022
#=======================================================
lattice_vector -11.8214850400000007 0.0000000000000000 3.7934850000000000 
lattice_vector -0.0216627830000000 14.2853073920000000 -0.0388440000000000 
lattice_vector -0.0472330100000000 -0.0473599790000000 -20.3762398400000002 
atom_frac 0.4649568691406927 0.9920261916179599 0.5498120718697308 Cu
atom_frac 0.9152969035958449 0.5082283958455208 0.4501450474941535 Cu
atom_frac 0.5349706251350383 0.0082078818845162 0.4502137924838294 Cu
atom_frac 0.0846205737362169 0.4919133023604090 0.5496779133339303 Cu
atom_frac 0.9333100996756939 0.9447626322230818 0.8835437570989129 Cu
atom_frac 0.0508374470408697 0.5557284745996185 0.1168093031201991 Cu
atom_frac 0.0664091612051578 0.0556365111424526 0.1166525831517475 Cu
atom_frac 0.9491167948863647 0.4436538385295422 0.8838994425060562 Cu
atom_frac 0.7183832380944750 0.0599903171020060 0.9165992312978872 Cu
atom_frac 0.8037684499239859 0.4403863088519060 0.0826392507008720 Cu
atom_frac 0.2798440425725062 0.9406099377200832 0.0826034213689013 Cu
atom_frac 0.1967083425340661 0.5596895536200677 0.9173846456725342 Cu
atom_frac 0.7292183636331657 0.3049080538839917 0.9010830859812768 Cu
atom_frac 0.8310734698586869 0.1928514080720731 0.0939959303949678 Cu
atom_frac 0.2644276589983292 0.6928108670778813 0.0947255640800577 Cu
atom_frac 0.1689021679722202 0.8075253062669319 0.9051361032504133 Cu
atom_frac 0.0364857484395671 0.6993991157438019 0.6932299968533967 H
atom_frac 0.3434218031601617 0.8008036008722286 0.3067061976577463 H
atom_frac 0.9633690090484135 0.3007328981012592 0.3066279286883500 H
atom_frac 0.6578345817932885 0.1986204190336522 0.6937025927231701 H
atom_frac 0.7856655108152282 0.9092689966014832 0.6891286515888879 H
atom_frac 0.0968762748750649 0.5911250203764027 0.3108663367255957 H
atom_frac 0.2140802463409628 0.0907315113805893 0.3107587993753569 H
atom_frac 0.9040321941929504 0.4087276604034997 0.6891951636424878 H
atom_frac 0.7683939320628143 0.7528656762329933 0.5052284730588283 H
atom_frac 0.2629306829657310 0.7472170250870748 0.4948247951005554 H
atom_frac 0.2314034341874915 0.2471802572273205 0.4946361088095160 H
atom_frac 0.7366826147874620 0.2530851464816095 0.5052602290888188 H
atom_frac 0.7956860705371084 0.6892830056768419 0.8851274232066045 H
atom_frac 0.9110022065501936 0.8099538555455227 0.1150718374126782 H
atom_frac 0.2048313834335076 0.3100714872616805 0.1154246505832788 H
atom_frac 0.0880458706012348 0.1900751462002930 0.8851754569089678 H
atom_frac 0.5127361638938694 0.5329529850796320 0.9085142826301009 H
atom_frac 0.6048804844136626 0.9668983609084024 0.0914337904890345 H
atom_frac 0.4869670980596156 0.4667932657610976 0.0913279525064468 H
atom_frac 0.3941666282343022 0.0334375756433190 0.9080672630382195 H
atom_frac 0.5039319667820762 0.8343940429020338 0.9048861467860405 H
atom_frac 0.5993123351465712 0.6654637673471697 0.0951114187078943 H
atom_frac 0.4964840238896072 0.1653546193538418 0.0950500032262411 H
atom_frac 0.3993388742721109 0.3348728815414930 0.9046044987688758 H
atom_frac 0.9439620000298916 0.6377219301472792 0.5615248007911546 C
atom_frac 0.3824675569895247 0.8623364017960782 0.4385680780853535 C
atom_frac 0.0559063888673847 0.3623708619559238 0.4383269034887221 C
atom_frac 0.6175643173862824 0.1378421806955572 0.5616117950481083 C
atom_frac 0.9047067968634437 0.7169538840405565 0.5962126674019287 C
atom_frac 0.3085161546329047 0.7832442529051848 0.4038201910513877 C
atom_frac 0.0951074803229801 0.2831053357467113 0.4036476759654802 C
atom_frac 0.6918598690956584 0.2167799752408754 0.5964652717867763 C
atom_frac 0.9609481081637766 0.7381933883105347 0.6653184275692253 C
atom_frac 0.2957609409185337 0.7620872079152434 0.3346712755151842 C
atom_frac 0.0388644584045821 0.2618854178390961 0.3345376338493438 C
atom_frac 0.7053841396312065 0.2375385169714050 0.6657674484251499 C
atom_frac 0.9189628000898863 0.8088451662573349 0.6983075841170958 C
atom_frac 0.2208969533832175 0.6915348360681719 0.3016831048467238 C
atom_frac 0.0808159272306881 0.1912133722483702 0.3015584113520688 C
atom_frac 0.7806180595005118 0.3079466829107390 0.6987550760245327 C
atom_frac 0.8200990853254098 0.8564821840519130 0.6626116737315755 C
atom_frac 0.1576702304000506 0.6438894087085387 0.3373762022707538 C
atom_frac 0.1796500500285277 0.1435253180352163 0.3372739389869039 C
atom_frac 0.8431795212839290 0.3559335061257087 0.6627863183409487 C
atom_frac 0.7669300366518214 0.8374836327266237 0.5931406614155037 C
atom_frac 0.1738042288348680 0.6628284990804616 0.4068595035149228 C
atom_frac 0.2328512214824343 0.1625357699264356 0.4067450197660349 C
atom_frac 0.8264312889626666 0.3372607994989281 0.5932053330068568 C
atom_frac 0.8094993154825546 0.7683595367461749 0.5593788374326465 C
atom_frac 0.2500052253195548 0.7318581634587744 0.4406427704116567 C
atom_frac 0.1902887431913173 0.2316808071155663 0.4404889299582138 C
atom_frac 0.7500250916368857 0.2683140170562126 0.5595063973819804 C
atom_frac 0.6653322593696416 0.8935885885851960 0.5563277366095178 C
atom_frac 0.1089587753164665 0.6066638629464336 0.4436185625840706 C
atom_frac 0.3345391450284154 0.1065478438872276 0.4435960979604445 C
atom_frac 0.8910640960162084 0.3934620456342586 0.5562981556746037 C
atom_frac 0.9759554114850033 0.8348976476395151 0.7721611825075739 C
atom_frac 0.2042105291699131 0.6655054911417011 0.2278403042172954 C
atom_frac 0.0239510444702802 0.1652168114940339 0.2276803906184597 C
atom_frac 0.7985413082902750 0.3339633692900820 0.7725803251912851 C
atom_frac 0.7142348523297883 0.8619928961989062 0.8921771675970973 C
atom_frac 0.8224024281134990 0.6377489806827157 0.1074795237395705 C
atom_frac 0.2859813722306299 0.1377251174376610 0.1075937596234411 C
atom_frac 0.1769404265900079 0.3626725012482410 0.8920646471701658 C
atom_frac 0.6570815590160990 0.7708392332438408 0.8958069154101620 C
atom_frac 0.7615988906982167 0.7287317451099825 0.1042438216595585 C
atom_frac 0.3434122321829634 0.2287493894800505 0.1044203261752372 C
atom_frac 0.2372871747392438 0.2714786485535399 0.8956073429022453 C
atom_frac 0.7129240277755216 0.6869338864425956 0.8927733226770370 C
atom_frac 0.8206404132865474 0.8124463197031845 0.1073779289277256 C
atom_frac 0.2874787635807792 0.3124964762156779 0.1076483090876366 C
atom_frac 0.1783742088843354 0.1877557071706590 0.8926944738544194 C
atom_frac 0.6630666523144129 0.6007737140584269 0.8988006172490158 C
atom_frac 0.7648263083455404 0.8986354155029304 0.1012066284273985 C
atom_frac 0.3370606535062137 0.3986249587380541 0.1013528679228983 C
atom_frac 0.2344224935147139 0.1016603871500621 0.8988576626771873 C
atom_frac 0.5537188748967808 0.5993173544834961 0.9050391292812845 C
atom_frac 0.6492651762701911 0.9004368731961279 0.0949645838729438 C
atom_frac 0.4462969432792860 0.4003272075298129 0.0949581701540509 C
atom_frac 0.3498208159118760 0.0998725319263940 0.9047685301106724 C
atom_frac 0.4961985262645571 0.6837696215246254 0.9060229691146091 C
atom_frac 0.5907013741739320 0.8160969334759970 0.0940785124329508 C
atom_frac 0.5040335137094801 0.3159800599999514 0.0940094766917312 C
atom_frac 0.4080611457102847 0.1842721560596345 0.9054985665944528 C
atom_frac 0.5485866350455311 0.7693904299479613 0.9028466053521313 C
atom_frac 0.6461012790865440 0.7303625862290560 0.0972139767665823 C
atom_frac 0.4518162065961704 0.2302999012353268 0.0972314935764871 C
atom_frac 0.3527053853230981 0.2699287910159995 0.9025712113272916 C
atom_frac 0.3763176447989026 0.6837088380800083 0.9085924341315349 C
atom_frac 0.4682523144153450 0.8163100738083955 0.0914344058114906 C
atom_frac 0.6238159808069171 0.3162039371481741 0.0912255624596483 C
atom_frac 0.5299111228530223 0.1843694885961824 0.9071967346582355 C
atom_frac 0.7287129723469760 0.5125532766157619 0.8974056182108042 C
atom_frac 0.8321051228620958 0.9865236700609331 0.1022778389401182 C
atom_frac 0.2710202384544829 0.4866502984590327 0.1023882611052045 C
atom_frac 0.1674316834144136 0.0136760502798055 0.8977322847933423 C
atom_frac 0.9318272164304631 0.1480047807816902 0.9567949544912718 Se
atom_frac 0.9806419078645021 0.3522046992040657 0.0454475082640897 Se
atom_frac 0.0663970227639936 0.8524218623083470 0.0438836920895014 Se
atom_frac 0.0221408114167545 0.6477915336648438 0.9563176608969284 Se
atom_frac 0.0373328501243009 0.5985610970841649 0.5945793333230895 O
atom_frac 0.4429164221850145 0.9014173839189541 0.4054988659257717 O
atom_frac 0.9625312405076442 0.4015345477471258 0.4052882514031353 O
atom_frac 0.5570806765867573 0.0988241817591344 0.5946753944326133 O
atom_frac 0.8799810401151474 0.6142013931390339 0.5018097999108591 O
atom_frac 0.3781489896370899 0.8858179261449308 0.4983399237624153 O
atom_frac 0.1199381220381568 0.3859144494625185 0.4980267746006746 O
atom_frac 0.6218040859115420 0.1144760907467273 0.5018191699678738 O
atom_frac 0.6582627613063822 0.9216633141142196 0.4956453644344663 O
atom_frac 0.1623557603475660 0.5786073317400735 0.5042990659236324 O
atom_frac 0.3417063476757106 0.0785999790923029 0.5043258642132642 O
atom_frac 0.8375528859389404 0.4214752631995610 0.4956440738671830 O
atom_frac 0.5954522804639524 0.9104062216495379 0.5897960354437045 O
atom_frac 0.0058201998277241 0.5897781683930106 0.4101021367625606 O
atom_frac 0.4044460817657978 0.0897491750642558 0.4101470140298034 O
atom_frac 0.9942172387384430 0.4103287137164955 0.5897765960601332 O
atom_frac 0.9316525483737051 0.9053282318451963 0.7929075003285603 O
atom_frac 0.1396054594268463 0.5948976170371694 0.2072493770380389 O
atom_frac 0.0676455385495558 0.0940776126555036 0.2072977162708298 O
atom_frac 0.8580228713679717 0.4072802288038915 0.7925101307103404 O
atom_frac 0.0597860251167646 0.7871368083272401 0.8068260864810952 O
atom_frac 0.2530031532763388 0.7133468081060953 0.1929568190385211 O
atom_frac 0.9410035665328281 0.2134822977239210 0.1925728416541830 O
atom_frac 0.7550717984334554 0.2829727535034507 0.8089692640584473 O
atom_frac 0.6644155720544305 0.9345526047551261 0.9056429885925327 O
atom_frac 0.7589178677107212 0.5655701685074063 0.0925614615148334 O
atom_frac 0.3341466277468754 0.0657576190897657 0.0918032937328448 O
atom_frac 0.2412259949090795 0.4341943696997533 0.9087850110033385 O
atom_frac 0.8056612148198423 0.8587030747947823 0.8764231483085824 O
atom_frac 0.9296600125113131 0.6408648179190238 0.1241749007394049 O
atom_frac 0.1960837266236553 0.1403899648835960 0.1250803577062243 O
atom_frac 0.0695400214941628 0.3605043194494897 0.8732060349881081 O
atom_frac 0.3317018732045157 0.6015889911430820 0.9016824547595873 O
atom_frac 0.4304497463364711 0.8984290234143373 0.0982848697660259 O
atom_frac 0.6682023879260869 0.3983343648140902 0.0977375046197437 O
atom_frac 0.5671906984250441 0.1031754209877960 0.8980705863423922 O
atom_frac 0.3319463599454764 0.7613287227735912 0.9156429562496909 O
atom_frac 0.4169258664827852 0.7386894422548949 0.0843697552354428 O
atom_frac 0.6682932532299118 0.2385279323826026 0.0843504525967234 O
atom_frac 0.5807369523346111 0.2624862564726200 0.9154746434060709 O
atom_frac 0.6800291875755490 0.4344567180396197 0.8992353167096636 O
atom_frac 0.7807378519053431 0.0645176145319653 0.0978453936335413 O
atom_frac 0.3182205272098528 0.5645362469590438 0.0980537118906355 O
atom_frac 0.2191218121670317 0.9358382055545180 0.9019521635338135 O
atom_frac 0.8294283694644236 0.5253494266267609 0.8950182932775022 O
atom_frac 0.9362282758473626 0.9732693133900341 0.1070802201449510 O
atom_frac 0.1715649721925772 0.4737271940519037 0.1070225766154991 O
atom_frac 0.0634099325221200 0.0267494665192274 0.8930399187721889 O
atom_frac 0.8827370458069979 0.0296105577981933 0.9462825183209063 O
atom_frac 0.9388945319496359 0.4704531580827833 0.0548559523168848 O
atom_frac 0.1168372289398860 0.9705064838024384 0.0541268619837894 O
atom_frac 0.0622347649814543 0.5297720384085736 0.9458706971313192 O
atom_frac 0.7873857457776481 0.1821741324684041 0.9348289867704905 O
atom_frac 0.8609887849471602 0.3191537441895349 0.0719878075809888 O
atom_frac 0.2120362544735812 0.8192584237901955 0.0728128981714988 O
atom_frac 0.1382502828332974 0.6810116957350303 0.9267616255082697 O
atom_frac 0.9653704221137218 0.1615564671175989 0.0437878982250622 O
atom_frac 0.9282966665062561 0.3369977409771251 0.9591710390709166 O
atom_frac 0.0377846369742798 0.8374128754865994 0.9573555838090753 O
atom_frac 0.0806654312069668 0.6631068721004709 0.0427682137040577 O
