#=======================================================
# FHI-aims file: ./geometry.in
# Created using the Atomic Simulation Environment (ASE)
# Fri Jan 14 15:06:22 2022
#=======================================================
lattice_vector 6.8552780110000002 -0.0001616790000000 -0.0000005710000000 
lattice_vector -0.0001616730000000 6.8549773610000004 -0.0006445650000000 
lattice_vector -0.0000013290000000 -0.0015221570000000 16.1273799740000001 
atom_frac 0.5000397145564293 0.5005634848895822 0.2499812702202604 Cu
atom_frac 0.4999989390878453 0.4993776491430355 0.7500147070605508 Cu
atom_frac 0.5000239171045208 0.9997644939702682 0.9999816910567177 Ni
atom_frac 0.0000002212365331 0.5000966327403306 0.5000113073410901 Ni
atom_frac 0.4999083304648124 0.1860005594594369 0.3868191972258118 H
atom_frac 0.5000121545327686 0.8153126458329821 0.3868772123904379 H
atom_frac 0.4999637749919899 0.1846824615488245 0.6131162867912324 H
atom_frac 0.8147315239972385 0.5007082750664011 0.1131059854224148 H
atom_frac 0.8146849648823957 0.4994461032294950 0.8869080045067649 H
atom_frac 0.1853348520573377 0.4995100335159393 0.8869036443346943 H
atom_frac 0.1853916209091863 0.5007138569989920 0.1131158843796598 H
atom_frac 0.4999552766637975 0.8139872394620086 0.6131209761970382 H
atom_frac 0.9999203669371680 0.9997582711938405 0.3538724200301148 H
atom_frac 0.9999641781244435 0.9994453490379840 0.6461672506799802 H
atom_frac 0.9999319955907139 0.9997194394075208 0.1461455586041538 H
atom_frac 0.9999788058897323 0.9994535473195754 0.8538965911366249 H
atom_frac 0.5000114041330336 0.1047594987512142 0.1860195403499745 C
atom_frac 0.5000227724217864 0.8960648234994011 0.1860753490259341 C
atom_frac 0.4999735751249829 0.1037523099770823 0.8139113223446304 C
atom_frac 0.8956940137287361 0.5013805972665111 0.3139154464015733 C
atom_frac 0.8956663224538347 0.4993640364700625 0.6861016731697449 C
atom_frac 0.1043315304433179 0.4993701716903375 0.6861010253337270 C
atom_frac 0.1043752684724311 0.5014173689168615 0.3139210004257720 C
atom_frac 0.5000549627571688 0.8950707561603931 0.8139249672281182 C
atom_frac 0.4999646802039662 0.1016885496632227 0.3297110776165937 C
atom_frac 0.5000010016137324 0.8995540676476850 0.3297485465798928 C
atom_frac 0.4999690919581141 0.1003972750869764 0.6702418505348220 C
atom_frac 0.8989950857097354 0.5011153630784690 0.1702324568017985 C
atom_frac 0.8989557880016860 0.4994251942467542 0.8297815545289070 C
atom_frac 0.1010537939450344 0.4994574327302954 0.8297802874401229 C
atom_frac 0.1011033023172700 0.5011286387195427 0.1702367695271718 C
atom_frac 0.4999820745397087 0.8982992539730290 0.6702414970797932 C
atom_frac 0.9999334843552389 0.9998310591765146 0.2874915227732870 C
atom_frac 0.9999656475270343 0.9993521403481437 0.7125574480739730 C
atom_frac 0.9999378458605078 0.9998246247445621 0.2125264629747363 C
atom_frac 0.9999729557907244 0.9993556545758581 0.7875094864223018 C
atom_frac 0.5000361405012228 0.2265992213564162 0.0930830888754315 S
atom_frac 0.5000198665017520 0.7736105508398053 0.0932686481140195 S
atom_frac 0.4998641549844578 0.2260432019397030 0.9067490198987259 S
atom_frac 0.7735560128449208 0.5009154787512174 0.4067903977498233 S
atom_frac 0.7735312141562005 0.4993711665319295 0.5932223544237232 S
atom_frac 0.2264622263226528 0.4993538869000814 0.5932210942367463 S
atom_frac 0.2264797344258085 0.5010280346456852 0.4068027841491926 S
atom_frac 0.5001717190340003 0.7730545155167191 0.9068285482861712 S
atom_frac 0.4999816481031160 0.2032207301760849 0.2579682056953203 N
atom_frac 0.5000394336986957 0.7978543708079684 0.2580570781636240 N
atom_frac 0.4999598335129747 0.2020561288601214 0.7419444784631042 N
atom_frac 0.7973653777805010 0.5011318081454662 0.2419477604924155 N
atom_frac 0.7973304263637572 0.4993528977621792 0.7580674815367416 N
atom_frac 0.2026703722373426 0.4993957647385159 0.7580649819416153 N
atom_frac 0.2027111585073129 0.5011717597366427 0.2419545617337846 N
atom_frac 0.5000292891069834 0.7966970481789134 0.7419632840449353 N
