#=======================================================
# FHI-aims file: ./geometry.in
# Created using the Atomic Simulation Environment (ASE)
# Fri Jan 14 15:04:46 2022
#=======================================================
lattice_vector 6.3731359970000003 -0.0009566980000000 0.0015128520000000 
lattice_vector -3.1881198839999998 10.6923687070000000 -0.2804440960000000 
lattice_vector 0.0035847350000000 0.0363397840000000 15.0904122610000009 
atom_frac 0.0545368072581382 0.5097830288249695 0.2535532541046379 Mn
atom_frac 0.5449278882410625 0.4905848054006443 0.2464987140629518 Mn
atom_frac 0.9454783265462439 0.4902317973592077 0.7464383377765387 Mn
atom_frac 0.4550797602403165 0.5094150571129746 0.7534926004799514 Mn
atom_frac 0.9886147502907575 0.3170027370513183 0.0018068371988846 H
atom_frac 0.6712442333242095 0.6829722359021916 0.4983853262608875 H
atom_frac 0.0113944814974546 0.6829877512099645 0.9981909296959656 H
atom_frac 0.3287273648450935 0.3170088926011588 0.5016135958075196 H
atom_frac 0.2119704917200310 0.4087909209031937 0.9394536130018167 H
atom_frac 0.8026390317313031 0.5911313123803694 0.5606510190790956 H
atom_frac 0.7880307316240122 0.5912023767051553 0.0605428815606928 H
atom_frac 0.1973421605319459 0.4088470316909893 0.4393418862291085 H
atom_frac 0.6495723988191529 0.1533809704267171 0.8909121797446032 H
atom_frac 0.4961765954986390 0.8464781348223058 0.6089296299278358 H
atom_frac 0.3504299498387768 0.8466114281282560 0.1090736952381377 H
atom_frac 0.5037777923415022 0.1535188047428164 0.3910947692547211 H
atom_frac 0.4788816775309854 0.3253187123495210 0.8946262700843235 H
atom_frac 0.1533530777185277 0.6745511472624487 0.6053182463276272 H
atom_frac 0.5211289637527231 0.6746745906087668 0.1053688982886030 H
atom_frac 0.8466096948640853 0.3254374394268355 0.3946874419546091 H
atom_frac 0.2107469624867806 0.9846219897468563 0.1043008347041834 H
atom_frac 0.2260800250652935 0.0154064802512508 0.3958340254391857 H
atom_frac 0.7892560518049194 0.0153591911232880 0.8956835063946542 H
atom_frac 0.7738860847369152 0.9846044836734080 0.6041919585453427 H
atom_frac 0.0524829842902150 0.1607641847455596 0.0960454851997739 H
atom_frac 0.8914300925555027 0.8393707157065083 0.4042857050064796 H
atom_frac 0.9475315974560700 0.8392244471337733 0.9039482706247384 H
atom_frac 0.1085549137561870 0.1606309543427998 0.5957235375533826 H
atom_frac 0.2463588466445188 0.4387917423662489 0.0815248667676087 C
atom_frac 0.8074987619235401 0.5613715754615642 0.4185678700248374 C
atom_frac 0.7536533592979353 0.5612015539763819 0.9184722893427659 C
atom_frac 0.1925116965526784 0.4386339029329067 0.5814222232584925 C
atom_frac 0.1671026235040287 0.3536472537573872 0.9992639844450081 C
atom_frac 0.8130836567593248 0.6463521857267980 0.5008833058008547 C
atom_frac 0.8329020709705472 0.6463404352903981 0.0007317428661580 C
atom_frac 0.1869056468215718 0.3536392404362518 0.4991131551772199 C
atom_frac 0.1980404205924274 0.2555952575658298 0.2900603707438733 C
atom_frac 0.9429700864354731 0.7448089613918544 0.2102408235650657 C
atom_frac 0.8019602502990325 0.7444063733532362 0.7099607976219174 C
atom_frac 0.0570514163741720 0.2552217410294162 0.7897576894498569 C
atom_frac 0.4497754023852066 0.0514377053503523 0.9986132052936796 C
atom_frac 0.3983017563222545 0.9485335405158677 0.5013983666464554 C
atom_frac 0.5502377908566131 0.9485481433626930 0.0013738722227643 C
atom_frac 0.6016629544799700 0.0514746244771445 0.4986255774450115 C
atom_frac 0.5206185679423571 0.1501320051764949 0.9389522148609402 C
atom_frac 0.3704162005807349 0.8497684931581662 0.5609921071448696 C
atom_frac 0.4793889530200134 0.8498613245262735 0.0610350022528010 C
atom_frac 0.6295397654123888 0.1502284600610509 0.4390283160987066 C
atom_frac 0.4270839879122050 0.2473908110908597 0.9393237860136806 C
atom_frac 0.1795228607572811 0.7525261226403830 0.5606798389814570 C
atom_frac 0.5729230547219615 0.7526015676171414 0.0606680521814127 C
atom_frac 0.8204406683377100 0.2474671197852701 0.4393318998001021 C
atom_frac 0.2774355368075945 0.0562008788555630 0.0559965805534830 C
atom_frac 0.2211466003723928 0.9438256828915644 0.4441241009474766 C
atom_frac 0.7225757559598731 0.9437905808111610 0.9439906014288937 C
atom_frac 0.7788214174009623 0.0561796813403888 0.5558984654175488 C
atom_frac 0.4690093860189181 0.7300117140481250 0.3080451251449077 C
atom_frac 0.7388353441791012 0.2703995522397309 0.1919420198309822 C
atom_frac 0.5309986726637206 0.2699983927745322 0.6919589705157063 C
atom_frac 0.2611915968630072 0.7296106351008336 0.8080388818983193 C
atom_frac 0.1869441891093331 0.1540913855806211 0.0533008102448562 C
atom_frac 0.0326258146741908 0.8459753492717399 0.4469168447747194 C
atom_frac 0.8130689644933684 0.8459037992383858 0.9466910794870883 C
atom_frac 0.9673477247134414 0.1540253620397323 0.5530990078414959 C
atom_frac 0.2200861507064573 0.3651794808374406 0.2781222539860408 N
atom_frac 0.8553487430127403 0.6351421605803509 0.2219096334202462 N
atom_frac 0.7799103576703174 0.6348138050871555 0.7218775541941156 N
atom_frac 0.1446720077826029 0.3648838928611228 0.7780808412032059 N
atom_frac 0.3748016553881399 0.6395195379062102 0.2630691852937801 N
atom_frac 0.7348886763265271 0.3608098176407993 0.2369706767106905 N
atom_frac 0.6252217845362509 0.3604962129510270 0.7369257363011457 N
atom_frac 0.2651376177298986 0.6392022197479080 0.7630162235170204 N
atom_frac 0.2614265544864837 0.2484774080063091 0.9955492442844259 N
atom_frac 0.0126658612477257 0.7515401699909179 0.5046128435925610 N
atom_frac 0.7385851866220037 0.7515149576112991 0.0044465692308790 N
atom_frac 0.9873091272745214 0.2484540199116055 0.4953955982862226 N
atom_frac 0.5687022518044246 0.8198051254687257 0.3515542884590275 O
atom_frac 0.7490121380995162 0.1806984037829054 0.1483943988577252 O
atom_frac 0.4312872813253819 0.1801993280287206 0.6484616320995187 O
atom_frac 0.2510132121389644 0.8193211465490223 0.8515833636731925 O
atom_frac 0.1787656159958431 0.1470944965568749 0.3033158576471138 O
atom_frac 0.0323191987371772 0.8533938392130909 0.1972862184355151 O
atom_frac 0.8212379735735739 0.8529098591123587 0.6967292172706151 O
atom_frac 0.9676996155991944 0.1466377711294058 0.8027202637910091 O
atom_frac 0.4395000994209823 0.4509982761043787 0.1095387506083725 O
atom_frac 0.9885086282899492 0.5491168324806921 0.3906481151388661 O
atom_frac 0.5605116663330278 0.5489847308853302 0.8904588769985721 O
atom_frac 0.0115093170086311 0.4509036118365232 0.6093415928520187 O
atom_frac 0.1076012452357276 0.4889947447212749 0.1133973595138684 O
atom_frac 0.6186254306792947 0.5113576981150916 0.3865402255268791 O
atom_frac 0.8924212896662456 0.5110097860580255 0.8865966909825643 O
atom_frac 0.3813907075731747 0.4886403105506290 0.6134464150055833 O
