#=======================================================
# FHI-aims file: ./geometry.in
# Created using the Atomic Simulation Environment (ASE)
# Fri Jan 14 15:06:22 2022
#=======================================================
lattice_vector 6.4598161870000004 0.0927175400000000 -0.6265839050000001 
lattice_vector -2.7159131180000000 7.8925356769999997 -4.4030540050000004 
lattice_vector -0.3478412370000000 0.0553393380000000 11.5509066849999993 
atom_frac 0.3626980899141544 0.2907109777793053 0.6838672613277268 Dy
atom_frac 0.6373034129644211 0.7092962441336466 0.3161382763459811 Dy
atom_frac 0.5907539517973532 0.3977677749266631 0.5375993488481825 H
atom_frac 0.4092468304188230 0.6022281313520637 0.4623949104984105 H
atom_frac 0.2477030279553531 0.5550371980353290 0.6185960706919218 H
atom_frac 0.7522977981025392 0.4449587016591180 0.3813990542559508 H
atom_frac 0.0562152322362833 0.4406453722379452 0.6430966099309359 H
atom_frac 0.9437806183861284 0.5593468269792864 0.3568925058844312 H
atom_frac 0.8663941708544272 0.6021406034941563 0.7467358601236285 H
atom_frac 0.1336047660189053 0.3978578342280628 0.2532618612732946 H
atom_frac 0.5729435447995569 0.5710519616373800 0.6454739903732188 H
atom_frac 0.4270623303066472 0.4289489678804017 0.3545181313676550 H
atom_frac 0.3054788794685379 0.0643297914325416 0.8607182073344146 H
atom_frac 0.6945198358355568 0.9356749550744466 0.1392836383351437 H
atom_frac 0.0517507353482570 0.7787348481228091 0.6553968425294485 H
atom_frac 0.9482512901366321 0.2212635522410551 0.3446010321700257 H
atom_frac 0.4272944321797638 0.2004067979519916 0.1448248015390945 H
atom_frac 0.5727080614934510 0.7995928724994387 0.8551718512323561 H
atom_frac 0.9509204557965841 0.6170016208195220 0.0104028985304082 H
atom_frac 0.0490695577602480 0.3830006854924973 0.9896001421375471 H
atom_frac 0.2167044629846799 0.9248652122664325 0.5315569741011003 H
atom_frac 0.7833099584275232 0.0751393079430827 0.4684508316888554 H
atom_frac 0.0083064779104802 0.9537296056135531 0.5879164164548667 H
atom_frac 0.9917060484621487 0.0462749859494096 0.4120843878736125 H
atom_frac 0.4907159514666262 0.4191235618118795 0.0035121394058280 C
atom_frac 0.5092623974015639 0.5808738552363479 0.9964849418512712 C
atom_frac 0.1594298217064392 0.7941025422722987 0.2689842991655169 C
atom_frac 0.8405659008851741 0.2058984192354529 0.7310202700355646 C
atom_frac 0.0831698188983269 0.8141146456429171 0.7603960330089591 C
atom_frac 0.9168318178660541 0.1858862806538326 0.2396036491895686 C
atom_frac 0.2201438449361675 0.9569644005379770 0.9843473622047511 C
atom_frac 0.7798688235378961 0.0430300862197726 0.0156487322800700 C
atom_frac 0.3229227185480497 0.0758888238650357 0.1169900168624451 C
atom_frac 0.6770799066503417 0.9241108268335481 0.8830092327128297 C
atom_frac 0.2806264818737461 0.0313974926762626 0.2171180982693599 C
atom_frac 0.7193715542490368 0.9686022074755554 0.7828817869533679 C
atom_frac 0.3604607058011737 0.1571497359955884 0.3568722147546310 C
atom_frac 0.6395567083235034 0.8428585692131632 0.6431328675038016 C
atom_frac 0.1529628641696590 0.8617987947770374 0.1747387247288331 C
atom_frac 0.8470340934750384 0.1382084700048694 0.8252683141936075 C
atom_frac 0.0448694231317360 0.7454157985253855 0.0404600684771664 C
atom_frac 0.9551287363005798 0.2545876910626035 0.9595412679178635 C
atom_frac 0.0755952249482306 0.7955165222248297 0.9450503980478754 C
atom_frac 0.9243981864728498 0.2044794247754993 0.0549504028525476 C
atom_frac 0.2196886889112619 0.9616616910874995 0.8654205275471156 N
atom_frac 0.7803095687807584 0.0383317002795565 0.1345752334029768 N
atom_frac 0.0010243711742247 0.7115819763986406 0.8066393383350529 N
atom_frac 0.9989788181115602 0.2884151220299174 0.1933615661462724 N
atom_frac 0.2825896230646023 0.1351030987505908 0.4492818175315350 O
atom_frac 0.7174173257984224 0.8649028178637935 0.5507200550676431 O
atom_frac 0.4377344265247133 0.2833242716634742 0.8911819388822620 O
atom_frac 0.5622468578743991 0.7166679826598281 0.1088237224458695 O
atom_frac 0.5289828583066835 0.4359802278394937 0.1202491433100333 O
atom_frac 0.4710101346227943 0.5640169091633138 0.8797633430302267 O
atom_frac 0.3443243890968260 0.8053475927809824 0.3312378126201167 O
atom_frac 0.6556787019292541 0.1946596038685016 0.6687686673061464 O
atom_frac 0.5176928581595419 0.2980422843489522 0.3932361684054442 O
atom_frac 0.4823128118086758 0.7019573355755641 0.6067623688711095 O
atom_frac 0.1696105619241378 0.4387018125512936 0.5947743504755394 O
atom_frac 0.8303880762727616 0.5612928620718944 0.4052184573439844 O
atom_frac 0.9794821623571721 0.7180755788026262 0.2807713194946616 O
atom_frac 0.0204979797965024 0.2819231225754137 0.7192202884793062 O
atom_frac 0.1721545468542019 0.9985114929531989 0.6088014982797462 O
atom_frac 0.8278506823361483 0.0014944686774996 0.3911968352630595 O
atom_frac 0.6198537682356432 0.4755946519631422 0.6429589931115417 O
atom_frac 0.3801479041548317 0.5244100769383377 0.3570404090567363 O
