#=======================================================
# FHI-aims file: ./geometry.in
# Created using the Atomic Simulation Environment (ASE)
# Wed Feb  9 14:46:33 2022
#=======================================================
lattice_vector 10.1373868900000002 -0.2279871500000000 -4.0178733299999996 
lattice_vector -4.8435314700000003 9.1114492899999995 -3.5064758000000000 
lattice_vector 0.3817108300000000 0.1104417800000000 11.2579883800000005 
atom_frac 0.4999987500000000 0.5000031300000000 -0.0000483300000000 Mn
    initial_moment         1.000000
atom_frac 0.9999988400000001 0.5000032200000000 0.4999511599999999 Mn
    initial_moment        -1.000000
atom_frac 0.5143409699999999 0.1663143900000000 0.3765775199999999 H
atom_frac 0.2892722999999999 0.1373717400000000 0.1233146500000000 H
atom_frac 0.4856565600000000 0.8336921199999999 0.6233247899999999 H
atom_frac 0.7107243000000000 0.8626341099999999 0.8765872599999998 H
atom_frac 0.3754542200000000 0.1631467400000000 0.5087743299999999 H
atom_frac 0.1539535500000000 0.8662572700000000 -0.0088793300000000 H
atom_frac 0.6245434100000001 0.8368598300000000 0.4911281100000000 H
atom_frac 0.8460437700000001 0.1337496000000000 1.0087813600000000 H
atom_frac 0.1832399200000000 0.6875446700000000 0.3112113600000000 H
atom_frac 0.8760389800000000 0.8716292000000000 0.1886678700000000 H
atom_frac 0.8167572000000001 0.3124618200000000 0.6886906000000000 H
atom_frac 0.1239582900000000 0.1283768200000000 0.8112346699999998 H
atom_frac 0.3213678700000000 0.6907225000000000 0.1784582400000000 H
atom_frac 0.0119320100000000 0.1425447400000000 0.3214169599999999 H
atom_frac 0.6786291800000002 0.3092839999999999 0.8214437100000000 H
atom_frac 0.9880650900000000 0.8574612899999999 0.6784854200000000 H
atom_frac 0.5736293200000001 0.5228152100000000 0.2515230700000000 H
atom_frac 0.7715407200000001 0.3223961100000000 0.2483114300000001 H
atom_frac 0.4263681700000001 0.4771928800000001 0.7483810500000000 H
atom_frac 0.2284570000000001 0.6776102000000001 0.7515912799999999 H
atom_frac 0.7055411699999999 0.6573925099999999 0.2605885699999999 H
atom_frac 0.8971552000000000 0.4452393400000000 0.2393309300000000 H
atom_frac 0.2944565700000000 0.3426139900000000 0.7393145299999999 H
atom_frac 0.1028422200000000 0.5547669299999999 0.7605713499999999 H
atom_frac 0.4285232800000001 0.9287638299999998 0.2678938900000000 C
atom_frac 0.1604680000000000 0.1602599400000000 0.2319816600000000 C
atom_frac 0.5714740600000000 0.0712427000000000 0.7320082899999999 C
atom_frac 0.8395290300000000 0.8397461000000001 0.7679206900000000 C
atom_frac 0.4414851600000000 0.0609821700000000 0.3623474900000000 C
atom_frac 0.1982016900000000 0.0787413400000000 0.1375364400000000 C
atom_frac 0.5585122599999999 0.9390243599999998 0.6375547599999998 C
atom_frac 0.8017951200000000 0.9212645900000000 0.8623657799999997 C
atom_frac 0.3637659600000000 0.0591604600000000 0.4365225200000000 C
atom_frac 0.1222311600000001 0.9268291000000001 0.0633607300000001 C
atom_frac 0.6362314900000000 0.9408460699999999 0.5633797799999999 C
atom_frac 0.8777657300000000 0.0731768000000000 0.9365414699999999 C
atom_frac 0.2703555600000000 0.9251832900000000 0.4213831100000000 C
atom_frac 0.0034407999999999 0.8485553499999999 0.0784963000000000 C
atom_frac 0.7296418300000002 0.0748232400000000 0.5785191300000000 C
atom_frac 0.9965562500000000 0.1514505400000000 0.9214060300000000 C
atom_frac 0.2580331600000000 0.7929847099999999 0.3274496299999999 C
atom_frac 0.9652047100000001 0.9301864999999999 0.1724245199999999 C
atom_frac 0.7419640500000000 0.2070218000000000 0.6724524399999999 C
atom_frac 0.0347924800000000 0.0698195100000000 0.8274779099999999 C
atom_frac 0.3349088200000000 0.7946744200000000 0.2529524400000001 C
atom_frac 0.0413713300000000 0.0815838600000000 0.2469250100000000 C
atom_frac 0.6650883700000000 0.2053321000000000 0.7469496099999999 C
atom_frac 0.9586257700000002 0.9184221799999999 0.7529773699999999 C
atom_frac 0.5073012300000002 0.9285455200000001 0.1877332100000000 C
atom_frac 0.2404266200000000 0.3192209500000000 0.3121488100000000 C
atom_frac 0.4926962000000000 0.0714609000000000 0.8121690400000000 C
atom_frac 0.7595707300000000 0.6807850800000000 0.6877534400000000 C
atom_frac 0.5124474600000000 0.8008775699999999 0.1166298000000000 C
atom_frac 0.1839856000000000 0.3955525599999999 0.3833069499999999 C
atom_frac 0.4875500400000000 0.1991287800000000 0.8832728199999998 C
atom_frac 0.8160120600000002 0.6044539400000001 0.6165952800000000 C
atom_frac 0.5789999600000000 0.0523649600000000 0.1775148300000000 C
atom_frac 0.3743460500000000 0.4010621599999999 0.3222740100000000 C
atom_frac 0.4209974400000001 0.9476412900000000 0.8223871900000002 C
atom_frac 0.6256513100000000 0.5989435599999999 0.6776280699999999 C
atom_frac 0.1902146000000000 0.9215541000000000 0.5002544500000000 C
atom_frac 0.9209686900000000 0.6895233999999999 -0.0003944600000001 C
atom_frac 0.8097829200000001 0.0784524200000000 0.4996479100000000 C
atom_frac 0.0790283800000000 0.3104824900000000 1.0002968999999999 C
atom_frac 0.1808146400000000 0.0476131600000000 0.5711912899999999 C
atom_frac 0.9760227300000001 0.6091604300000000 0.9286394800000001 C
atom_frac 0.8191830200000000 0.9523933900000001 0.4287112500000000 C
atom_frac 0.0239743400000000 0.3908455500000000 0.0712628500000000 C
atom_frac 0.1269251200000000 0.7951859300000000 0.5085846199999999 C
atom_frac 0.7863553300000000 0.6179462199999999 0.9912709999999999 C
atom_frac 0.8730725200000001 0.2048205800000000 0.4913177600000001 C
atom_frac 0.2136419400000000 0.3820597600000000 0.0086318300000000 C
atom_frac 0.5123741100000000 0.6883323000000000 0.0655783400000000 N
atom_frac 0.1226103300000000 0.4466073900000000 0.4344209199999999 N
atom_frac 0.4876234700000001 0.3116739900000000 0.9343248400000000 N
atom_frac 0.8773873200000000 0.5533990600000001 0.5654813599999999 N
atom_frac 0.6372273000000001 0.1560162700000000 0.1678107400000000 N
atom_frac 0.4875893200000000 0.4689039999999999 0.3318770000000000 N
atom_frac 0.3627697799999999 0.8439904999999999 0.8320918399999999 N
atom_frac 0.5124084800000001 0.5311067400000000 0.6680286000000000 N
atom_frac 0.1790129900000000 0.1578819500000000 0.6283072099999999 N
atom_frac 0.0291191900000000 0.5502288300000001 0.8714971400000000 N
atom_frac 0.8209847600000000 0.8421246200000000 0.3715954699999999 N
atom_frac 0.9708778900000001 0.4497773500000000 0.1284050300000000 N
atom_frac 0.0838885000000000 0.6836276599999999 0.5117383000000000 N
atom_frac 0.6717483600000000 0.5719430899999999 0.9881804100000000 N
atom_frac 0.9161091400000001 0.3163788200000000 0.4881640199999999 N
atom_frac 0.3282491300000000 0.4280631100000000 0.0117228500000000 N
atom_frac 0.6239988300000001 0.5521831600000000 0.1967512900000000 O
atom_frac 0.8557118700000002 0.4274855900000000 0.3031382800000000 O
atom_frac 0.3759986600000000 0.4478234100000000 0.8031522699999999 O
atom_frac 0.1442856999999999 0.5725208099999999 0.6967641599999999 O
