#=======================================================
# FHI-aims file: ./geometry.in
# Created using the Atomic Simulation Environment (ASE)
# Wed Feb  9 14:46:30 2022
#=======================================================
lattice_vector 6.2779678299999997 -0.1255919900000000 0.0582303000000000 
lattice_vector 2.8781496500000001 8.0538922300000007 2.0831807000000002 
lattice_vector -0.0556506900000000 -0.0622632200000000 9.2746084399999997 
atom_frac 1.0000002100000001 0.9999999799999998 0.9999999600000001 Co
atom_frac 0.4999997500000001 1.0000000699999998 0.5000002200000000 Co
    initial_moment         3.000000
atom_frac 0.5376958700000001 0.8705257100000000 0.0708141200000000 H
atom_frac 0.4623047100000000 0.1294737600000000 0.9291854100000000 H
atom_frac 0.8881290799999999 0.6228840300000000 0.1098230900000000 H
atom_frac 0.1118712700000000 0.3771156000000000 0.8901784299999999 H
atom_frac 0.8463049600000000 0.4320257199999999 0.1060739300000000 H
atom_frac 0.1536950800000000 0.5679737400000000 0.8939281899999999 H
atom_frac 0.7369283900000000 0.2085893699999999 0.2656558999999999 H
atom_frac 0.2630736000000001 0.7914098599999999 0.7343455400000000 H
atom_frac 0.8283662399999999 0.5859512700000000 0.3768483499999999 H
atom_frac 0.1716324900000000 0.4140489800000000 0.6231534399999999 H
atom_frac 0.0544072900000000 0.4218917900000000 0.3378203600000000 H
atom_frac 0.9455920700000001 0.5781087599999999 0.6621816600000000 H
atom_frac 0.4506719600000000 0.7781624699999999 0.0853911300000001 C
atom_frac 0.5493282699999998 0.2218372200000000 0.9146088300000000 C
atom_frac 0.7969276300000000 0.5359748700000000 0.1600180000000000 C
atom_frac 0.2030723500000001 0.4640250399999999 0.8399835999999999 C
atom_frac 0.7093347500000000 0.2446622200000000 0.3704056900000001 C
atom_frac 0.2906658400000001 0.7553373399999999 0.6295955300000000 C
atom_frac 0.8706884600000000 0.4805684300000000 0.3246821900000000 C
atom_frac 0.1293108400000000 0.5194318500000000 0.6753195500000000 C
atom_frac 0.2273224200000000 0.0907806400000000 0.2260726699999999 N
atom_frac 0.7726783699999999 0.9092202099999999 0.7739265800000001 N
atom_frac 0.2008064600000000 0.0989514900000000 0.7241611400000001 N
atom_frac 0.7991948200000000 0.9010479800000000 0.2758389300000000 N
atom_frac 0.5585728700000000 0.6173546099999999 0.1293269100000000 N
atom_frac 0.4414272600000001 0.3826451599999999 0.8706743100000000 N
atom_frac 0.6182418600000000 0.1757197699999999 0.4860300600000000 N
atom_frac 0.3817573900000001 0.8242801999999999 0.5139705500000000 N
atom_frac 0.2331535100000000 0.7983203399999999 0.0752654200000000 N
atom_frac 0.7668465500000000 0.2016795500000000 0.9247359400000001 N
atom_frac 0.3732440100000000 0.0961463100000000 0.3032125199999999 N
atom_frac 0.6267566400000001 0.9038534999999998 0.6967873900000001 N
atom_frac 0.7651038799999998 0.3657901099999999 0.4074582200000000 N
atom_frac 0.2348956500000000 0.6342098600000000 0.5925432500000000 N
atom_frac 0.7107501000000001 0.3706943400000000 0.5466375999999999 N
atom_frac 0.2892478300000000 0.6293059400000000 0.4533633800000000 N
atom_frac 0.6220457400000001 0.2559714000000000 0.5930893699999999 N
atom_frac 0.3779514900000001 0.7440291599999999 0.4069111500000001 N
atom_frac 0.1910943300000000 0.1236132700000000 0.5929949100000000 N
atom_frac 0.8089061400000001 0.8763865600000000 0.4070051200000001 N
atom_frac 0.4049740600000000 0.5359488499999999 0.1477063300000000 N
atom_frac 0.5950255000000000 0.4640513600000000 0.8523007100000000 N
atom_frac 0.2106083000000000 0.6466780400000000 0.1157236300000000 N
atom_frac 0.7893921100000000 0.3533213800000000 0.8842713699999999 N
atom_frac 0.2259898200000000 0.0659163400000000 0.8563675099999999 N
atom_frac 0.7740105600000000 0.9340834899999999 0.1436325800000000 N
atom_frac 0.0733952600000000 0.1064057100000000 0.1436685300000000 N
atom_frac 0.9266053900000000 0.8935947199999997 0.8563311100000000 N
