#=======================================================
# FHI-aims file: ./geometry.in
# Created using the Atomic Simulation Environment (ASE)
# Fri Jan 14 15:06:22 2022
#=======================================================
lattice_vector 3.9481947430000002 -0.0152005380000000 -0.0000584240000000 
lattice_vector -0.5411791590000000 7.5654139479999998 0.0000283400000000 
lattice_vector -0.0002623370000000 0.0000409800000000 14.5288180170000008 
atom_frac 0.6137212552773408 0.3599807143806117 0.1409389016918823 Cu
atom_frac 0.3863210499249591 0.6399961793283422 0.6409478336113210 Cu
atom_frac 0.2374240252702292 0.9148750979395286 0.2475912314058775 H
atom_frac 0.7625769265893894 0.0851217062182528 0.7475853939209784 H
atom_frac 0.9107580015787138 0.9915982531536968 0.0672618451884759 H
atom_frac 0.0892491036679885 0.0083780461698240 0.5672777349962033 H
atom_frac 0.1024242406957043 0.3828703838120475 0.3406928992912839 H
atom_frac 0.8975601772916731 0.6171372747742724 0.8406826305549301 H
atom_frac 0.3925830117111744 0.7211359244954634 0.3829039976113933 H
atom_frac 0.6073508595229883 0.2788870368324154 0.8829051038562524 H
atom_frac 0.3237187907116166 0.5622484156207432 0.9442167258736944 H
atom_frac 0.6762609578429916 0.4377541465189977 0.4442293307250296 H
atom_frac 0.5450890297241245 0.9183922721239954 0.9258479115992130 H
atom_frac 0.4549594221987405 0.0816119489804592 0.4258381005548699 H
atom_frac 0.0891088487875464 0.5071318031680361 0.3046676494124084 C
atom_frac 0.9108883919457184 0.4928934548457136 0.8046717382971875 C
atom_frac 0.2350167443060087 0.6734673179681322 0.3255264563862355 C
atom_frac 0.7649555471874336 0.3265404804769148 0.8255313972252691 C
atom_frac 0.9568678914424567 0.6851517960934076 0.1940478904442884 C
atom_frac 0.0431441199305240 0.3148482539300019 0.6940470715548770 C
atom_frac 0.7951421068640129 0.7229534518966786 0.1088110515963407 C
atom_frac 0.2048686544090899 0.2770461971645161 0.6088213168756766 C
atom_frac 0.4842627921730199 0.6473909531091095 0.9884947232944440 C
atom_frac 0.5157622279733830 0.3526217948000578 0.4884967332708214 C
atom_frac 0.5915951451900411 0.8238970761193515 0.9793337074951934 C
atom_frac 0.4084469449765606 0.1761012655080449 0.4793307249251697 C
atom_frac 0.9172498086288312 0.5164507294522237 0.2229994862209850 N
atom_frac 0.0827204020012928 0.4835304176241307 0.7230072754241660 N
atom_frac 0.1477768412571975 0.7834463354886052 0.2550872635687610 N
atom_frac 0.8522066413673103 0.2165635703106971 0.7550995297120905 N
atom_frac 0.7843004721798508 0.8688182219920363 0.0559833015122564 N
atom_frac 0.2157404404196157 0.1311754510442853 0.5559735745506416 N
atom_frac 0.6132630517639585 0.5863009120002545 0.0690812709153832 N
atom_frac 0.3867424830605586 0.4136806517574882 0.5690821415519665 N
atom_frac 0.6143314129696834 0.1320943279036797 0.2415132562084210 Cl
atom_frac 0.3856310996327821 0.8679051085021854 0.7415027100673299 Cl
atom_frac 0.2259789786720958 0.2287744313870732 0.0421642502791144 Cl
atom_frac 0.7739947922823943 0.7712232216992517 0.5421861127442327 Cl
