#=======================================================
# FHI-aims file: ./geometry.in
# Created using the Atomic Simulation Environment (ASE)
# Wed Feb  9 14:46:28 2022
#=======================================================
lattice_vector -5.8478041400000000 -0.1103568300000000 -0.2923222300000000 
lattice_vector -0.7333779700000000 -7.4116192300000003 -3.1432176100000002 
lattice_vector -0.6264924500000000 -7.1248214399999998 6.4944295600000004 
atom_frac 1.0011994000000000 0.6502838500000000 0.6930607000000002 Mn
    initial_moment         3.000000
atom_frac -0.0011998000000000 0.3497163000000000 0.3069390700000000 Mn
    initial_moment        -3.000000
atom_frac 0.7729281000000000 0.7257017000000001 0.3548440000000000 V
atom_frac 0.2139316000000000 0.9199149600000001 0.3527286300000000 V
atom_frac 0.2270715099999999 0.2742984800000000 0.6451557500000000 V
atom_frac 0.7860679899999999 0.0800852100000000 0.6472711200000000 V
atom_frac 0.5593406500000000 0.8188573199999998 1.0120715000000002 H
atom_frac 0.4406588599999999 0.1811429100000000 -0.0120716900000000 H
atom_frac 0.4164172900000000 0.8385972899999999 0.7607440700000001 H
atom_frac 0.6049641200000000 0.4019704800000000 0.7445460600000002 H
atom_frac 0.5835821899999999 0.1614029700000001 0.2392556700000000 H
atom_frac 0.3950354200000001 0.5980297999999999 0.2554536800000000 H
atom_frac 0.3420733000000000 0.7551230600000001 0.8700124000000001 C
atom_frac 0.6690321400000000 0.3781394500000000 0.8565669700000001 C
atom_frac 0.6579262499999999 0.2448771600000000 0.1299873600000000 C
atom_frac 0.3309674100000000 0.6218607900000001 0.1434327800000000 C
atom_frac 0.0893302300000000 0.5511830399999998 1.0023108200000002 C
atom_frac 0.9106694700000000 0.4488170500000000 -0.0023110400000000 C
atom_frac 0.4216567700000001 0.7412454699999999 1.0091278300000002 C
atom_frac 0.5783427499999999 0.2587547900000000 -0.0091281000000000 C
atom_frac 0.1740368700000000 0.6589598199999999 0.8681519400000000 N
atom_frac 0.8371991199999999 0.4766422799999999 0.8583551100000002 N
atom_frac 0.8259627600000000 0.3410403100000000 0.1318478300000000 N
atom_frac 0.1628005300000000 0.5233578900000000 0.1416446600000001 N
atom_frac 0.8281142099999999 0.6442962600000000 0.5423004400000000 O
atom_frac 0.1670080600000000 0.8118593600000001 0.5389914200000000 O
atom_frac 0.1718853800000000 0.3557039100000002 0.4576993100000000 O
atom_frac 0.8329915200000000 0.1881408200000000 0.4610083300000001 O
atom_frac 0.9894177100000000 0.8738455600000001 0.2574119200000001 O
atom_frac 0.0105818800000000 0.1261546300000000 0.7425878299999999 O
atom_frac 0.7916783399999999 0.5530718100000001 0.2994475200000001 O
atom_frac 0.1911068700000000 0.1491806700000000 0.2968382300000000 O
atom_frac 0.2083212900000000 0.4469283600000001 0.7005522300000000 O
atom_frac 0.8088927599999999 0.8508194899999999 0.7031615500000001 O
atom_frac 0.4961595999999999 0.8519979099999999 0.2987636500000000 O
atom_frac 0.5038400100000000 0.1480022600000000 0.7012361200000000 O
