#=======================================================
# FHI-aims file: ./geometry.in
# Created using the Atomic Simulation Environment (ASE)
# Fri Jan 14 15:06:22 2022
#=======================================================
lattice_vector 6.7379650770000001 -0.0430029920000000 -0.9761398540000000 
lattice_vector -3.5180623629999999 13.0850666400000009 -7.1720311380000004 
lattice_vector 0.1345498430000000 0.0109143910000000 15.3387599740000002 
atom_frac 0.4927386371342308 0.2698003941691881 0.5903305524492878 Fe
atom_frac 0.2107786134011746 0.3234353141359278 0.7349445175576077 Fe
atom_frac 0.8717668696335397 0.3972954971254765 0.6707225407175057 Fe
atom_frac 0.5182675669491347 0.7329242187501991 0.4099918739497284 Fe
atom_frac 0.7919162349518344 0.6776944806309260 0.2654593280032955 Fe
atom_frac 0.1157113096984189 0.5922158843181008 0.3226584933913798 Fe
atom_frac 0.1822502839091910 0.5549431846877438 0.5349592522366178 H
atom_frac 0.6280472496948661 0.9750210869210252 0.4418032199286869 H
atom_frac 0.6490160767045551 0.4671015422573817 0.0242638430138199 H
atom_frac 0.8167316253006974 0.4468462993430861 0.4652846693190540 H
atom_frac 0.3726951237889438 0.0246604335808911 0.5583077103857548 H
atom_frac 0.3502160768899998 0.5338851076839717 0.9756043195117100 H
atom_frac 0.9191687787520664 0.7089524930640606 0.8233525170559870 H
atom_frac 0.2075871849668474 0.1146278896119668 0.2916604031609609 H
atom_frac 0.0920007815005448 0.1769139141777245 0.8846991382388225 H
atom_frac 0.0803627216378970 0.2913783822260144 0.1768571964246135 H
atom_frac 0.7936649636816426 0.8859479992355759 0.7092799324965496 H
atom_frac 0.9081701894273166 0.8231424394198755 0.1154770219786840 H
atom_frac 0.9326216784997213 0.5981466764516056 0.8297669302645049 H
atom_frac 0.3347441952648182 0.2331453009126961 0.4015984680742761 H
atom_frac 0.1035220844021296 0.1697257908109506 0.7676540156395218 H
atom_frac 0.0676714186186302 0.4018523962576523 0.1699305988194836 H
atom_frac 0.6653408541507916 0.7677026941741615 0.5992761714216638 H
atom_frac 0.8965971421030545 0.8303189430874128 0.2325055952194717 H
atom_frac 0.7961057571181201 0.5879389691814864 0.7159664256009106 H
atom_frac 0.2037038215916311 0.1281540244043313 0.4119262628051814 H
atom_frac 0.0799586439197952 0.2845721624432754 0.8724949899299544 H
atom_frac 0.2048712064304253 0.4122974418242434 0.2840811804735919 H
atom_frac 0.7967267189531172 0.8725307479115471 0.5890068304944475 H
atom_frac 0.9197788321865090 0.7153843080652320 0.1275286471239525 H
atom_frac 0.5451512459111924 0.5552643613436600 0.8137846324036954 H
atom_frac 0.9901794046838219 0.2575459286909449 0.4439127420404390 H
atom_frac 0.7341891748848610 0.1857244724134048 0.7426188969985930 H
atom_frac 0.4552173467375198 0.4443703021408822 0.1860563333005345 H
atom_frac 0.0092149331786331 0.7426118709498580 0.5561877583252723 H
atom_frac 0.2654125139491085 0.8138616519601952 0.2574198207150785 H
atom_frac 0.6686173937512834 0.6770494414612502 0.9213054891788987 H
atom_frac 0.9932601587852190 0.2436630924790890 0.3230006937470832 H
atom_frac 0.7457036905051382 0.0777612222584736 0.7555817431519074 H
atom_frac 0.3310941920360336 0.3226129032917839 0.0784929176963729 H
atom_frac 0.0068828168821325 0.7563756132451399 0.6771497865336115 H
atom_frac 0.2545142509450357 0.9219857411976021 0.2446320272812200 H
atom_frac 0.5334234633514541 0.6668257365037461 0.8080712435992581 H
atom_frac 0.8633085885478168 0.1392383826615742 0.3327108543510703 H
atom_frac 0.7232945345330040 0.1916452751343058 0.8596570077635305 H
atom_frac 0.4662187035066835 0.3327584122627910 0.1917468137149782 H
atom_frac 0.1372026531185426 0.8606579343307885 0.6673482406219121 H
atom_frac 0.2766429612750656 0.8080855875149099 0.1404303359141394 H
atom_frac 0.2527834047243759 0.4337234195656380 0.6075093320438611 C
atom_frac 0.8183506371849777 0.1694355517446056 0.5631134289303716 C
atom_frac 0.6423875636323616 0.3918764803986435 0.8314459867591637 C
atom_frac 0.7462516573369272 0.5662526263050581 0.3919324288185351 C
atom_frac 0.1833750761894491 0.8300179359580822 0.4366411765515179 C
atom_frac 0.3555161903553170 0.6061580347556657 0.1694992180835724 C
atom_frac 0.3814033095835326 0.4661089146312348 0.5520485772461257 C
atom_frac 0.9167370034325799 0.0853413124594624 0.5328445121286265 C
atom_frac 0.8291486689433969 0.4473831914946658 0.9150303717155167 C
atom_frac 0.6166030333642851 0.5350020958383155 0.4469052581063478 C
atom_frac 0.0843644354562513 0.9147397609204901 0.4670158179891927 C
atom_frac 0.1702443582041013 0.5525927842833838 0.0849895924237671 C
atom_frac 0.5652575045129067 0.4355520031906577 0.5323958990734282 C
atom_frac 0.1328704684674591 0.1009272907492473 0.5674620273328727 C
atom_frac 0.0312331917723370 0.4663601264508586 0.8997101027120989 C
atom_frac 0.4340957115689079 0.5671484873495630 0.4674253165058032 C
atom_frac 0.8686960675668729 0.8997006604839085 0.4327709681673680 C
atom_frac 0.9680530915359853 0.5337359672930830 0.0997288035620656 C
atom_frac 0.3215938183669634 0.5310596975892991 0.5193110292916358 C
atom_frac 0.7919640210708823 0.9858215391645900 0.4669328180010054 C
atom_frac 0.8035745908730122 0.4815341223849571 0.0137461505313822 C
atom_frac 0.6768662928108143 0.4704773359881571 0.4800984095295036 C
atom_frac 0.2090377638916223 0.0143309652041097 0.5330223717474993 C
atom_frac 0.1955506414083317 0.5192169686477685 0.9859118381608029 C
atom_frac 0.8301834216534727 0.6314070033972851 0.7996465055789057 C
atom_frac 0.1968605653984312 0.1684892053589023 0.3686062811075386 C
atom_frac 0.0294041294871121 0.2003573559006071 0.8314812774650377 C
atom_frac 0.1701084326262148 0.3687202129036820 0.2003423010694475 C
atom_frac 0.8036749015571660 0.8320531133105931 0.6321919082533326 C
atom_frac 0.9705886702028933 0.7995998773211496 0.1686339381604967 C
atom_frac 0.6341678935937124 0.6327608158832304 0.8377630819744722 C
atom_frac 0.0005134342169910 0.2040966060104168 0.3668907008524585 C
atom_frac 0.7958115640171498 0.1617424763423045 0.7953899455533316 C
atom_frac 0.3658714015780761 0.3669377642569528 0.1620307464026425 C
atom_frac 0.9995878887308718 0.7960481065230239 0.6333608061904811 C
atom_frac 0.2041756471828151 0.8379984813685725 0.2047013704970765 C
atom_frac 0.3097971486901159 0.3739203032185046 0.6377010539238980 O
atom_frac 0.9328454670299210 0.2610961492309086 0.6252876612284551 O
atom_frac 0.6625123920420961 0.3605052465429566 0.7398342253542863 O
atom_frac 0.6969872325272847 0.6293057688659899 0.3650788978066686 O
atom_frac 0.0707659195896539 0.7387909890822827 0.3714198163505600 O
atom_frac 0.3348698796262113 0.6316717162686274 0.2605646779957738 O
atom_frac 0.0921431372887226 0.4643336162787576 0.6245074412265835 O
atom_frac 0.6254149157643242 0.1546702712819723 0.5308501104471900 O
atom_frac 0.4661068769160153 0.3755791938064376 0.8488985546170156 O
atom_frac 0.9034518573871609 0.5318946551320211 0.3723638939907801 O
atom_frac 0.3742810606585892 0.8460862055033616 0.4728457374326638 O
atom_frac 0.5318478575888719 0.6265411603691432 0.1537614908546060 O
atom_frac 0.6384944760915588 0.3741889521935349 0.5616252380180455 O
atom_frac 0.2665574110050173 0.1934797265141910 0.6310614385908764 O
atom_frac 0.0719408337549439 0.4356885032120772 0.8072436003596195 O
atom_frac 0.3638029086662229 0.6301215739902659 0.4399536911049393 O
atom_frac 0.7336164432350997 0.8071158870682068 0.3694694050513475 O
atom_frac 0.9254043991819076 0.5637109191389554 0.1915100298187653 O
