#=======================================================
# FHI-aims file: ./geometry.in
# Created using the Atomic Simulation Environment (ASE)
# Tue Nov 30 12:20:15 2021
#=======================================================
lattice_vector -10.5502602119999995 0.0008895510000000 -3.6428697219999999 
lattice_vector -5.2746049760000000 -16.4645330399999992 -1.8189114280000001 
lattice_vector -10.6465825590000005 -0.0017979160000000 13.7471992079999996 
atom_frac 0.7456016339164931 0.7731904501352603 0.6638453713050795 Co
atom_frac 0.8766713607868937 0.5900942738610554 0.6636434546877866 Co
atom_frac 0.1827543676583686 0.7268180062966678 0.8362407321154708 Co
atom_frac 0.1304794578175502 0.9099640063234204 0.8363131589528694 Co
atom_frac 0.0190340080030750 0.6639089182900264 0.7267363903665328 Co
atom_frac 0.9667773121120287 0.6637901017471178 0.9099067388789522 Co
atom_frac 0.4094130332192520 0.8361897552484622 0.7733068593432507 Co
atom_frac 0.5402147676382252 0.8363133978636841 0.5901152587102558 Co
atom_frac 0.2544250413109878 0.2268349761009318 0.3361477447072475 Co
atom_frac 0.1233624387848379 0.4098892457689799 0.3363380028518180 Co
atom_frac 0.8172398927875903 0.2732055919703882 0.1637901073816223 Co
atom_frac 0.8695089675574293 0.0900784224176050 0.1636953483269892 Co
atom_frac 0.9810585338500245 0.3360758195144840 0.2732426089436045 Co
atom_frac 0.0332395464470565 0.3361794401361492 0.0901425769786002 Co
atom_frac 0.5905754529551430 0.1638502463681489 0.2266802477055023 Co
atom_frac 0.4598108182463676 0.1637430108789529 0.4098147452538612 Co
atom_frac 0.0000095477997987 0.4999808412290820 0.4999837089204037 Co
atom_frac 0.0000120299509305 0.0000438581088389 0.9999952273594347 Co
atom_frac 0.0000461881410701 0.4999485849525910 0.0000254926082022 Co
atom_frac 0.5000331014698459 0.0000131161698746 0.4999417843959080 Co
atom_frac 0.9922342049486016 0.7045897709035956 0.5901723111691767 H
atom_frac 0.6085922652898784 0.6126789541498071 0.9113275292014010 H
atom_frac 0.5043073091707271 0.5978348992520993 0.8599711387457349 H
atom_frac 0.6809329478153715 0.5503933458714625 0.8211153846116305 H
atom_frac 0.3540240182840576 0.4360807759816581 0.5609706797253793 H
atom_frac 0.2877433179583520 0.4748882731913112 0.4796097756401353 H
atom_frac 0.3714393491912773 0.5295190014822068 0.5157743926298224 H
atom_frac 0.6946976244790052 0.7065979275521028 0.4244051387711211 H
atom_frac 0.8463311184767262 0.7270780211450119 0.4075568007142182 H
atom_frac 0.8503961414302094 0.6245035193582568 0.3991525008465330 H
atom_frac 0.6609335517355601 0.3993871566901177 0.7257830876245138 H
atom_frac 0.8194587806977083 0.3286280946055555 0.7179583876057408 H
atom_frac 0.7515162365665232 0.3363000675203196 0.6368144992570494 H
atom_frac 0.2870965447928808 0.7955591249806840 0.9098803840068613 H
atom_frac 0.1335270043582427 0.8872441390668726 0.5886464481078875 H
atom_frac 0.9629703251421798 0.9023041331988962 0.6398508239360653 H
atom_frac 0.0533939665907608 0.9495888534547204 0.6788106537548871 H
atom_frac 0.3511140830899747 0.0640214751507031 0.9392212958936028 H
atom_frac 0.2423843591769241 0.0250786777040304 0.0205213100020245 H
atom_frac 0.4168114643500043 0.9704873560361092 0.9842710650481127 H
atom_frac 0.8268887161989937 0.7932972694874395 0.0758965750906881 H
atom_frac 0.9824152715214891 0.7728137708250530 0.0923541317264592 H
atom_frac 0.8753707801601750 0.8753936136812610 0.1010122234705050 H
atom_frac 0.7859307999655624 0.1005007003409943 0.7742431913665798 H
atom_frac 0.8658587053831395 0.1712866187020126 0.7820346157008233 H
atom_frac 0.7245697797623549 0.1635784364029575 0.8632055024426039 H
atom_frac 0.1968913841838570 0.5902836598655343 0.7955455646771129 H
atom_frac 0.7224940147635691 0.9116540568194010 0.8867798719280630 H
atom_frac 0.6030656707089503 0.8604656268523599 0.9019968538078802 H
atom_frac 0.7324820157474720 0.8215128172167494 0.9492424901332726 H
atom_frac 0.2899990644962854 0.5608371958544466 0.0642008588727947 H
atom_frac 0.2625251246227690 0.4795597997775760 0.0252299848667050 H
atom_frac 0.4008036538714136 0.5157863385148003 0.9707479289977884 H
atom_frac 0.9017906120777185 0.4243099674089024 0.7935360359590788 H
atom_frac 0.0738576864422526 0.4074689356032266 0.7730879339419516 H
atom_frac 0.9753340846126408 0.3991478671572820 0.8756597937199402 H
atom_frac 0.5603802829319164 0.7258054489999780 0.1005003397626752 H
atom_frac 0.6481039186090031 0.7180026643491713 0.1712713519099438 H
atom_frac 0.5879230864896956 0.6368160466823838 0.1636041757635738 H
atom_frac 0.5826126113659238 0.9097738579550025 0.7044380285909285 H
atom_frac 0.5208979328077347 0.5884479676324545 0.6131320215308023 H
atom_frac 0.3654533989610653 0.6394940021337591 0.5978935742571210 H
atom_frac 0.5029862151576906 0.6786136726471526 0.5507471961088867 H
atom_frac 0.9151680956960103 0.9389959720655554 0.4359948932215544 H
atom_frac 0.7675624464660373 0.0203539950505984 0.4748619708936418 H
atom_frac 0.8874221535766222 0.9840326128707205 0.5294686829544019 H
atom_frac 0.1196389807402976 0.0757850895654073 0.7065479621725360 H
atom_frac 0.2545496052739580 0.0925977984200586 0.7269101212804258 H
atom_frac 0.2500273000163699 0.1009788645169962 0.6243677975194047 H
atom_frac 0.3867669704968434 0.7742883619636840 0.3992015794200582 H
atom_frac 0.5375458499906999 0.7821963309103666 0.3286251459658374 H
atom_frac 0.3885258604182484 0.8633534312986414 0.3362330352377469 H
atom_frac 0.0077748325959988 0.2954909239343023 0.4098278082268081 H
atom_frac 0.3911307281900277 0.3873555561605215 0.0887572600356918 H
atom_frac 0.4955450235199805 0.4022561187150230 0.1399706357832216 H
atom_frac 0.3189421627512772 0.4496642570500101 0.1789283887175941 H
atom_frac 0.6460180893556072 0.5639731979474545 0.4390164819098601 H
atom_frac 0.7122510875944600 0.5251377587982375 0.5203821435895720 H
atom_frac 0.6285554023606961 0.4705392236340486 0.4841927809685061 H
atom_frac 0.3052464436997084 0.2934074477812131 0.5756187182278155 H
atom_frac 0.1535437224653504 0.2729947707082517 0.5924430833197007 H
atom_frac 0.1495992284864585 0.3755443772031483 0.6008454765460202 H
atom_frac 0.3388766616159344 0.6007852365761008 0.2742455830916555 H
atom_frac 0.1802806459468300 0.6714835538395221 0.2821104108332265 H
atom_frac 0.2482174127693141 0.6637891077627103 0.3632570690061669 H
atom_frac 0.7130357289282685 0.2044158916545626 0.0901485931978883 H
atom_frac 0.8663619903573050 0.1127181207721719 0.4112814585307802 H
atom_frac 0.0369206047449282 0.0976690433142835 0.3602237966630781 H
atom_frac 0.9466683542936775 0.0503728053617323 0.3211449175331468 H
atom_frac 0.6490816545922653 0.9359705620308888 0.0607081810296108 H
atom_frac 0.7578212591820583 0.9749145712629141 0.9794400423702714 H
atom_frac 0.5833904495994204 0.0294840334533504 0.0156362213923842 H
atom_frac 0.1731806900316356 0.2066953579809905 0.9241268020255688 H
atom_frac 0.0177091441512044 0.2271606466755288 0.9075955772867702 H
atom_frac 0.1247484775039212 0.1245935512840646 0.8990010909755598 H
atom_frac 0.2141565727447770 0.8993461711025784 0.2256805532548256 H
atom_frac 0.1341054107261570 0.8286398154504511 0.2178488086916275 H
atom_frac 0.2754078630255991 0.8363273464290372 0.1366925949754075 H
atom_frac 0.8032086960659226 0.4097350919679172 0.2044232019961782 H
atom_frac 0.2772416532279962 0.0883513054210496 0.1132607740509428 H
atom_frac 0.3968727948379893 0.1393933774378269 0.0979857842044041 H
atom_frac 0.2674379657868258 0.1784627966832346 0.0507739560529430 H
atom_frac 0.7101173193278069 0.4391524010101051 0.9357887383338195 H
atom_frac 0.7375743682617536 0.5204352639121339 0.9747464032622731 H
atom_frac 0.5992724221833325 0.4842324123986189 0.0292173863667741 H
atom_frac 0.0981947337421332 0.5757051313646001 0.2064571278893439 H
atom_frac 0.9261676412954857 0.5925060889131686 0.2268159577145496 H
atom_frac 0.0247843174782432 0.6008071154713974 0.1242792035109446 H
atom_frac 0.4396728099671063 0.2741100522516077 0.8994299483483561 H
atom_frac 0.3518147835877342 0.2819565535703815 0.8287178535786880 H
atom_frac 0.4120587447378767 0.3631146321878020 0.8363506998836955 H
atom_frac 0.4173937383873040 0.0902485254240446 0.2956002182330124 H
atom_frac 0.4789303313314193 0.4114881558873903 0.3869450956300470 H
atom_frac 0.6343945119623129 0.3605386935281558 0.4021847960206700 H
atom_frac 0.4969828825444861 0.3213097073682435 0.4492971768561135 H
atom_frac 0.0849011052145697 0.0610233810284697 0.5640145074908248 H
atom_frac 0.2324608514486856 0.9796325561779679 0.5251622050231434 H
atom_frac 0.1126012696133143 0.0159673005409005 0.4705543844448600 H
atom_frac 0.8803768639742131 0.9242755616968168 0.2934600381119665 H
atom_frac 0.7454924856639664 0.9073905724131562 0.2731461899264788 H
atom_frac 0.7500726737948044 0.8990720711381854 0.3756612106450206 H
atom_frac 0.6130915040365392 0.2256355981681324 0.6010376019090132 H
atom_frac 0.4622538580814177 0.2176577930080227 0.6714852015242628 H
atom_frac 0.6112543818839027 0.1365025123764880 0.6638891254740715 H
atom_frac 0.6090088305087064 0.6799657889361586 0.8023436051480956 C
atom_frac 0.6027531197689835 0.6041480711771927 0.8511524961322009 C
atom_frac 0.1760716131304389 0.5360193470220055 0.5942299620965841 C
atom_frac 0.3049145965850000 0.4918173474220140 0.5329897555529685 C
atom_frac 0.7803106300184695 0.6720274332041497 0.5207408605723601 C
atom_frac 0.7939479613964120 0.6817381273482112 0.4317970642847157 C
atom_frac 0.8262858296378822 0.4349413492578407 0.6445284808285977 C
atom_frac 0.7592534703214819 0.3710634937679771 0.6831473790108832 C
atom_frac 0.0917832030282425 0.8200042677345748 0.6976336954010166 C
atom_frac 0.0589086779004262 0.8958453868774469 0.6487685175762081 C
atom_frac 0.3063172682539982 0.9641964347459505 0.9057308057774167 C
atom_frac 0.3297823064357246 0.0082470959266487 0.9671057002111355 C
atom_frac 0.9736463517734816 0.8279891934312998 0.9792871709584148 C
atom_frac 0.9087371206428897 0.8181948153327663 0.0683000826408459 C
atom_frac 0.9057387558780968 0.0649692082730553 0.8554485424480234 C
atom_frac 0.8133500381197076 0.1288275134380257 0.8168706871689296 C
atom_frac 0.7894800414170360 0.8025401264148401 0.8197576957936193 C
atom_frac 0.7079275563775907 0.8515346092992644 0.8954968722301900 C
atom_frac 0.2119218644962188 0.5943396513517524 0.9642767757265106 C
atom_frac 0.2966009969378050 0.5329801143162457 0.0084207997814545 C
atom_frac 0.9526252719882962 0.5207696275606679 0.8279972825329837 C
atom_frac 0.9761801522250049 0.4317527213858270 0.8184006726409693 C
atom_frac 0.7613152889685464 0.6445558069320469 0.0649915902703809 C
atom_frac 0.6303922023542724 0.6831599228807618 0.1288403572991044 C
atom_frac 0.4115511885772416 0.6974848972430365 0.6802098720539577 C
atom_frac 0.4547811676590212 0.6485320770654042 0.6044446455219871 C
atom_frac 0.7704115344530607 0.9056389184666999 0.5358564838787246 C
atom_frac 0.8381018285997185 0.9669118113283587 0.4917192670721137 C
atom_frac 0.3013504319070175 0.9793274960133972 0.6719732651421283 C
atom_frac 0.2263168572273030 0.0683405850572925 0.6816223549357970 C
atom_frac 0.4706995081511992 0.8555345349877612 0.4349997725836587 C
atom_frac 0.4424957789669933 0.8169594946334300 0.3710022208265897 C
atom_frac 0.3909757726331549 0.3200681292390755 0.1977311407977993 C
atom_frac 0.3970925150369311 0.3959040637557151 0.1488921994108168 C
atom_frac 0.8239760611285758 0.4639890752438802 0.4057526476316937 C
atom_frac 0.6951156945278710 0.5082177993235604 0.4669808724565031 C
atom_frac 0.2196846186617947 0.3279998149510845 0.4792383494140893 C
atom_frac 0.2060100653355829 0.3182982280095458 0.5681938550313107 C
atom_frac 0.1736396711632932 0.5650713181079896 0.3554528675133213 C
atom_frac 0.2405325610556446 0.6290299396529803 0.3168898961672539 C
atom_frac 0.9082569423084619 0.1799658928137760 0.3023236712538804 C
atom_frac 0.9410734389683311 0.1041186957021694 0.3511995825060623 C
atom_frac 0.6937544945600109 0.0358648315518906 0.0942346273670935 C
atom_frac 0.6703774261694800 0.9917680159600338 0.0328536598201693 C
atom_frac 0.0263205396563109 0.1720641656134489 0.0207316246642009 C
atom_frac 0.0913285016736864 0.1818051021561331 0.9317065256484796 C
atom_frac 0.0942921550160918 0.9350319267929734 0.1445148399801113 C
atom_frac 0.1866522687095866 0.8710892009362965 0.1830492133372701 C
atom_frac 0.2105077444836284 0.1974695049326129 0.1802470299831995 C
atom_frac 0.2919509732673403 0.1484379644702400 0.1045292825837407 C
atom_frac 0.7881064578831030 0.4056651179439044 0.0357766018126782 C
atom_frac 0.7034940320121661 0.4670137320048724 0.9915775218466865 C
atom_frac 0.0474461686710227 0.4791695525100649 0.1720195619854437 C
atom_frac 0.0238926326824967 0.5682071157005026 0.1815567030514842 C
atom_frac 0.2387162906075771 0.3553772965789790 0.9350320729855639 C
atom_frac 0.3695951919477948 0.3167792562726319 0.8711433043439029 C
atom_frac 0.5884734989088115 0.3024603529247685 0.3198164816923281 C
atom_frac 0.5451387389698255 0.3514204539163898 0.3955992783591213 C
atom_frac 0.2296200701527268 0.0943737544209853 0.4641267944840308 C
atom_frac 0.1619609040840258 0.0330941802972191 0.5082815598039830 C
atom_frac 0.6986648130489853 0.0207264831991480 0.3279522222833934 C
atom_frac 0.7737220220541160 0.9316994166322488 0.3183890171033354 C
atom_frac 0.5292794456191245 0.1444386533454036 0.5650101570956849 C
atom_frac 0.5573536358267930 0.1829432205517136 0.6291146340487899 C
atom_frac 0.9286483167037004 0.6939871998451322 0.6401293784168871 O
atom_frac 0.6963824387197657 0.6748508651854904 0.7314584083407071 O
atom_frac 0.1799859270533586 0.5815118400292006 0.6447483361001433 O
atom_frac 0.0682962603194708 0.5235031361407821 0.5929484320719213 O
atom_frac 0.7074651240120743 0.7321202725449892 0.5678294968981419 O
atom_frac 0.8430477056172094 0.6054896548400136 0.5481381988946269 O
atom_frac 0.8039081530545927 0.4948154539875561 0.6895352290031697 O
atom_frac 0.9011157340419230 0.4239369588254930 0.5715077583327927 O
atom_frac 0.5264816259653314 0.7466481132644275 0.8319644305200738 O
atom_frac 0.2626130571147337 0.8061605734750971 0.8600013468475823 O
atom_frac 0.1028271885537110 0.8251111352663043 0.7686242095726429 O
atom_frac 0.4062219776799050 0.9187514632559229 0.8551750142725539 O
atom_frac 0.1847776225428459 0.9767172678272189 0.9069624159941371 O
atom_frac 0.0079283368972723 0.7678195816453480 0.9322915538073744 O
atom_frac 0.9967298022027078 0.8946227278561024 0.9517579634178330 O
atom_frac 0.9882713739227852 0.0051433012163216 0.8104188282991700 O
atom_frac 0.8965735624578740 0.0759656057600822 0.9284760626184579 O
atom_frac 0.1055115270436883 0.7533485992877547 0.6679701795808699 O
atom_frac 0.1225755665090346 0.6401687586702564 0.8061327200698190 O
atom_frac 0.8714380103585456 0.7315440971406346 0.8249723372241746 O
atom_frac 0.2612577813318068 0.6449712395689815 0.9189074391445969 O
atom_frac 0.0917174089749719 0.5929931758186625 0.9766037745743148 O
atom_frac 0.9401775123680665 0.5677182574933254 0.7677377231434761 O
atom_frac 0.9483289246917721 0.5483110390853909 0.8945733421969210 O
atom_frac 0.7988378673554735 0.6896418661685925 0.0051814009748341 O
atom_frac 0.8251426757645676 0.5714913049936142 0.0759397837867084 O
atom_frac 0.7734147898881928 0.8321034035580013 0.7531004355138151 O
atom_frac 0.5687050782422884 0.8598651583553618 0.6939047677287463 O
atom_frac 0.4278534141216424 0.7684546451512161 0.6750607918973659 O
atom_frac 0.8248626790181105 0.8550141460264057 0.5812843880855142 O
atom_frac 0.6612513314300089 0.9070191740651125 0.5234157071669827 O
atom_frac 0.2755487434860482 0.9323318594627636 0.7321867600920698 O
atom_frac 0.3911746456324820 0.9518362552698748 0.6054210744280509 O
atom_frac 0.4932677820676048 0.8104766181405623 0.4948670160417805 O
atom_frac 0.4724539355638414 0.9286025796257176 0.4240568491699932 O
atom_frac 0.3583301553891046 0.6679269893245704 0.7468474088542935 O
atom_frac 0.0713727394528192 0.3060661635771211 0.3598761288993587 O
atom_frac 0.3035912466568008 0.3251545071576202 0.2686074853047984 O
atom_frac 0.8200879653943928 0.4184832206351813 0.3552430903968755 O
atom_frac 0.9317685212415514 0.4764834233570454 0.4070205423868529 O
atom_frac 0.2925254127065099 0.2679051525461418 0.4321562248834709 O
atom_frac 0.1569706106123689 0.3945199840252656 0.4518127873310435 O
atom_frac 0.1960225265487453 0.5051953904829103 0.3104559795302180 O
atom_frac 0.0988547009573679 0.5760374445646972 0.4284949827774157 O
atom_frac 0.4736009596332096 0.2534113174115618 0.1681301989162521 O
atom_frac 0.7373789304950621 0.1938441930024908 0.1400598600713110 O
atom_frac 0.8971362879227412 0.1748942469086003 0.2313465976636166 O
atom_frac 0.5938718987818490 0.0813596129381651 0.1447475851962565 O
atom_frac 0.8152942644198048 0.0233415667406973 0.0930238235089433 O
atom_frac 0.9919480794007071 0.2322623212434891 0.0677041338068918 O
atom_frac 0.0032565787752503 0.1054306302478736 0.0482790901910093 O
atom_frac 0.0117506847392407 0.9948377884513347 0.1895613787682109 O
atom_frac 0.1035119651195942 0.9241047752947792 0.0714571255707313 O
atom_frac 0.8946229008204013 0.2466167115190672 0.3319496985443138 O
atom_frac 0.8774810029068760 0.3598335888947445 0.1938638091886843 O
atom_frac 0.1285829743185971 0.2684758610683389 0.1750338232058937 O
atom_frac 0.7386988692762984 0.3550912202857646 0.0811949551493356 O
atom_frac 0.9083277381288184 0.4069715073593940 0.0234574865475849 O
atom_frac 0.0598198748866139 0.4322597873811915 0.2323031935314006 O
atom_frac 0.0517621250326812 0.4515959505834458 0.1054531684198636 O
atom_frac 0.2011455178084630 0.3103282827087597 0.9948547605560378 O
atom_frac 0.1749286823266016 0.4284618442151710 0.9240796145493564 O
atom_frac 0.2265664088813961 0.1679280918541082 0.2469112569720124 O
atom_frac 0.4313517954210013 0.1401535923145474 0.3060532769000162 O
atom_frac 0.5722231533031702 0.2314875771570044 0.3249090764849852 O
atom_frac 0.1751384979812370 0.1450161348545080 0.4187353474178083 O
atom_frac 0.3388185397764044 0.0929843953796023 0.4765219504037718 O
atom_frac 0.7243884451339823 0.0676862834680065 0.2677154839017959 O
atom_frac 0.6088484573454591 0.0482420192290505 0.3945024356291924 O
atom_frac 0.5066805554519576 0.1895348284906078 0.5051805982185940 O
atom_frac 0.5276568570460541 0.0713414712530991 0.5758706835996393 O
atom_frac 0.6417088389754042 0.3320316216346129 0.2531975974325179 O
