#=======================================================
# FHI-aims file: ./geometry.in
# Created using the Atomic Simulation Environment (ASE)
# Fri Jan 14 15:06:22 2022
#=======================================================
lattice_vector 8.5308822969999998 0.0533381930000000 -2.9939123980000000 
lattice_vector -3.8546382349999999 7.9082726460000003 -1.7868341960000000 
lattice_vector -0.0259019500000000 -0.0868848620000000 9.9643762430000002 
atom_frac 0.2632133563481601 0.2487814650999169 0.5362381778603690 Fe
atom_frac 0.7363495094485586 0.7509901997836153 0.4634962372760611 Fe
atom_frac 0.9999544267840719 0.9999422274347437 0.9998465211294627 Fe
atom_frac 0.2788958861331423 0.9641948425989214 0.3044431576676843 P
atom_frac 0.7213673332755306 0.0360173899902634 0.6955385402633566 P
atom_frac 0.9163191834125258 0.8977609104305271 0.2647510686066922 P
atom_frac 0.0837583055761328 0.1021398624665366 0.7350808369641157 P
atom_frac 0.4826297625171777 0.8784202107991562 0.3924633519839915 H
atom_frac 0.5174950075296678 0.1217080562256783 0.6076172444805291 H
atom_frac 0.0934017177785974 0.8541148884922478 0.5163763516594599 H
atom_frac 0.9067789580891699 0.1459921845775938 0.4836510058526002 H
atom_frac 0.9129489459155239 0.2131867278210108 0.1336690296351577 H
atom_frac 0.0856614595791071 0.7862698187559473 0.8648817040960991 H
atom_frac 0.1173343000059219 0.3014437945184766 0.2269453341150793 H
atom_frac 0.8812933980940090 0.6984057828350174 0.7728612788676016 H
atom_frac 0.4353871472622259 0.2781012691473848 0.8947867501536066 H
atom_frac 0.5650620021652556 0.7217488673103744 0.1052681738801836 H
atom_frac 0.1172627687759444 0.5968822291930493 0.2127181856323404 H
atom_frac 0.8829191746046164 0.4031639533835687 0.7875224309493162 H
atom_frac 0.0013425263467183 0.6603545486088861 0.0708457286233538 H
atom_frac 0.9987268048369273 0.3395259246785045 0.9293202976318256 H
atom_frac 0.9504678649076724 0.4748010666492916 0.3707495799778896 H
atom_frac 0.0492496012763298 0.5265102536220001 0.6302999168649706 H
atom_frac 0.6655370041816512 0.2479005338833460 0.3247234508602261 H
atom_frac 0.3344779126243934 0.7523359131243692 0.6755833924518766 H
atom_frac 0.4015179168192661 0.1552861551474649 0.0752892166124468 H
atom_frac 0.5988858494409044 0.8441073534336566 0.9244945623475116 H
atom_frac 0.6914309208413412 0.4875570100493717 0.9242512446068005 H
atom_frac 0.3091600244890529 0.5123461858533104 0.0760013167797240 H
atom_frac 0.0794642189351435 0.8100089812944303 0.3045449693093545 C
atom_frac 0.9208579001266416 0.1902158651185886 0.6955851452588533 C
atom_frac 0.0140416754758519 0.6391982609964870 0.1779720891524831 C
atom_frac 0.9861831217229025 0.3609061990986361 0.8223049002870084 C
atom_frac 0.8459259891904624 0.5035910969787023 0.1541794551153828 C
atom_frac 0.1543003356515199 0.4966453718335514 0.8462591552104185 C
atom_frac 0.8340177207159131 0.4309078388829731 0.2649675997429739 C
atom_frac 0.1659891026298652 0.5696950917472705 0.7356594456851653 C
atom_frac 0.6758967466974682 0.3043881254498189 0.2393443104670894 C
atom_frac 0.3241766312848853 0.6958582447565292 0.7609808740584327 C
atom_frac 0.5303248793178527 0.2502911432370993 0.1029773444745601 C
atom_frac 0.4699473455973758 0.7495487972923697 0.8970767852371466 C
atom_frac 0.6963112424337368 0.4429009419444442 0.0187764297065272 C
atom_frac 0.3040848846274926 0.5570795203153620 0.9814836377532214 C
atom_frac 0.4280648091082639 0.4855847080804735 0.4245672581423817 C
atom_frac 0.5714760262354730 0.5139670176268396 0.5751612407092778 C
atom_frac 0.5452854302051549 0.3202495803742805 0.9975907642378059 N
atom_frac 0.4550784512973323 0.6796268861846002 0.0025064868636306 N
atom_frac 0.3954059746363965 0.8700328987297891 0.2907021286794062 O
atom_frac 0.6047447808097033 0.1299897424490126 0.7093332127833278 O
atom_frac 0.2286803122014263 0.0190035324108493 0.1692183175659778 O
atom_frac 0.7715783349313979 0.9811081814607262 0.8307038383264213 O
atom_frac 0.3782195423234285 0.1097277295318477 0.4611890723750278 O
atom_frac 0.6221047487867609 0.8904793679779103 0.5388231008995205 O
atom_frac 0.0040162766078922 0.0792516376124510 0.3812836673217815 O
atom_frac 0.9957428148777866 0.9208034303666109 0.6181249749759344 O
atom_frac 0.7561995959864093 0.7819792136784259 0.2811668765835975 O
atom_frac 0.2438317256272171 0.2180264075145998 0.7187422165025551 O
atom_frac 0.8553853590577843 0.8871757095213723 0.0992359885927455 O
atom_frac 0.1448120465661091 0.1121432612423661 0.9004272597530445 O
atom_frac 0.1243722109287190 0.7857092355812084 0.4474501489892900 O
atom_frac 0.8762868070084053 0.2147623816746034 0.5527893135474854 O
atom_frac 0.2712642447573188 0.3916645510206748 0.4002860692298497 O
atom_frac 0.7282723727077212 0.6079401820687238 0.5994305962111142 O
atom_frac 0.4706788994704780 0.5541341374830467 0.3366409634505558 O
atom_frac 0.5289262893334552 0.4456730816593505 0.6632480264333580 O
atom_frac 0.0200168330503061 0.2414976317727309 0.1210426866598766 O
atom_frac 0.9792001713640773 0.7582414339254556 0.8785046893710202 O
