#=======================================================
# FHI-aims file: ./geometry.in
# Created using the Atomic Simulation Environment (ASE)
# Wed Feb  9 14:46:27 2022
#=======================================================
lattice_vector 7.1612942899999998 -0.0071069200000000 0.0010664200000000 
lattice_vector -0.0044419400000000 9.8783814000000003 0.0000102300000000 
lattice_vector 0.0019449000000000 -0.0001928700000000 9.8792103000000004 
atom_frac 0.4997382900000000 0.3912070400000000 0.1088164000000000 V
    initial_moment         2.000000
atom_frac 0.4998633700000000 0.8912000800000002 0.3911843200000000 V
    initial_moment         2.000000
atom_frac 0.5002342400000001 0.6087857700000000 0.8911894800000000 V
    initial_moment         2.000000
atom_frac 0.5001689600000000 0.1087884000000000 0.6088097500000000 V
    initial_moment         2.000000
atom_frac 0.4999642799999999 0.6594747900000000 0.1593953300000000 H
atom_frac 0.4999900000000000 0.8405206899999998 0.6593885700000001 H
atom_frac 0.5000242600000000 0.1594670200000000 0.3406058600000000 H
atom_frac 0.5000321100000000 0.3405177000000000 0.8406090800000000 H
atom_frac 0.5001429900000000 0.5569533400000001 0.5875983800000000 C
atom_frac 0.5002245500000000 0.4123891400000000 0.5569570000000000 C
atom_frac 0.5000248600000000 0.0569522400000000 0.9124005800000000 C
atom_frac 0.4998246900000000 0.4430296500000001 0.4124050000000000 C
atom_frac 0.4997476200000000 0.0875990700000000 0.0569534400000000 C
atom_frac 0.4997620600000000 0.5875953900000001 0.4430460000000001 C
atom_frac 0.4999679699999999 0.9430348200000002 0.0875949100000000 C
atom_frac 0.5002445500000000 0.9123892200000000 0.9430422700000000 C
atom_frac 0.8961540000000000 0.4480847500000000 0.0519705300000000 C
atom_frac 0.8962295499999999 0.9480853100000000 0.4480266400000000 C
atom_frac 0.1036559200000000 0.9481085400000000 0.4480093600000000 C
atom_frac 0.8963924699999999 0.5519474000000000 0.9480863899999999 C
atom_frac 0.1038190800000000 0.5519573900000000 0.9480865499999999 C
atom_frac 0.8963761900000000 0.0519408300000000 0.5519222300000000 C
atom_frac 0.1038026700000000 0.0519567800000000 0.5519122100000000 C
atom_frac 0.1035805400000000 0.4481036900000000 0.0519795400000000 C
atom_frac 0.4996589699999999 0.3706371500000000 0.3085211000000000 O
atom_frac 0.4994579100000000 0.6914858899999999 0.3706634600000000 O
atom_frac 0.4999970900000000 0.8706463300000001 0.1914788100000000 O
atom_frac 0.5003367600000000 0.6293414100000000 0.6914846600000000 O
atom_frac 0.5005619200000000 0.8084972200000000 0.8706581999999999 O
atom_frac 0.5005518900000000 0.3085003400000000 0.6293418900000000 O
atom_frac 0.5000510600000000 0.1293382100000000 0.8085154900000000 O
atom_frac 0.4993947000000000 0.1914923400000000 0.1293353400000000 O
atom_frac 0.7756358500000000 0.3829529300000000 0.1170895600000000 O
atom_frac 0.7757697199999999 0.8829205600000000 0.3829417800000000 O
atom_frac 0.2239268500000000 0.8829853600000002 0.3828921800000000 O
atom_frac 0.7761798099999999 0.6170735200000002 0.8829790600000001 O
atom_frac 0.2243374900000000 0.6170066400000002 0.8828853500000001 O
atom_frac 0.7761050600000000 0.1170441200000000 0.6170589100000000 O
atom_frac 0.2242619000000000 0.1170429700000000 0.6170760800000000 O
atom_frac 0.2237929900000000 0.3829683500000000 0.1170783700000000 O
atom_frac 0.4998976900000000 0.4112304600000001 0.9112742100000000 O
atom_frac 0.5002678200000000 0.0887538600000000 0.4112678500000000 O
atom_frac 0.4997652800000000 0.9112335000000001 0.5887266300000000 O
atom_frac 0.5000771300000000 0.5887596899999999 0.0887321700000000 O
