#=======================================================
# FHI-aims file: ./geometry.in
# Created using the Atomic Simulation Environment (ASE)
# Wed Feb  9 14:46:21 2022
#=======================================================
lattice_vector 8.2204395800000007 -0.1909694200000000 1.1944166599999999 
lattice_vector 0.0064690700000000 9.0551873599999997 1.9401191099999999 
lattice_vector 0.1182464000000000 0.3053757200000000 12.6258855000000008 
atom_frac 0.5628774400000000 0.3631589400000000 0.6422854700000000 Cu
    initial_moment         1.000000
atom_frac 0.4407420400000000 0.6338070000000000 0.3590676500000001 Cu
    initial_moment        -1.000000
atom_frac 0.4892688100000001 0.1488987600000000 0.9497122999999998 Cu
atom_frac 0.5108728200000000 0.8513982600000002 0.0495124900000000 Cu
atom_frac 0.5576938100000000 0.5959563400000001 0.9521040300000000 H
atom_frac 0.4426862300000000 0.4040143200000000 0.0474113200000000 H
atom_frac 0.2845421500000000 0.7451200600000001 0.8209082000000000 H
atom_frac 0.7165160300000000 0.2536609200000000 0.1797170000000000 H
atom_frac 0.9749618999999999 0.3778973100000000 0.8033250599999999 H
atom_frac 0.0251997800000000 0.6229631400000000 0.1949058700000000 H
atom_frac 0.7834576900000000 0.4787424700000000 0.8579660800000001 H
atom_frac 0.2169883800000000 0.5210469799999999 0.1417370900000000 H
atom_frac 0.5243956500000000 0.0727854800000000 0.5711235800000001 H
atom_frac 0.4739632700000000 0.9236254600000000 0.4304842900000000 H
atom_frac 0.0221312900000000 0.9316874200000003 0.6938804500000001 H
atom_frac 0.9749818700000000 0.0685904700000000 0.3071799800000000 H
atom_frac 0.7886185900000000 0.9608092200000000 0.6573499500000000 H
atom_frac 0.2095353400000000 0.0408507100000000 0.3438787800000000 H
atom_frac 0.9809403099999999 0.1670628100000000 0.7565198700000000 H
atom_frac 0.0178157600000000 0.8343657800000001 0.2426469800000000 H
atom_frac 0.5175699300000000 0.8537943800000001 0.7506613100000000 H
atom_frac 0.4806284900000000 0.1468840900000000 0.2488794000000000 H
atom_frac 0.2930258500000000 0.8833519600000002 0.5934007800000000 H
atom_frac 0.7042413700000000 0.1142806200000000 0.4086346800000000 H
atom_frac 0.1074705500000000 0.8028842600000001 0.9250314200000000 H
atom_frac 0.8926893200000000 0.1980006700000000 0.0734838600000000 H
atom_frac 0.8823788100000000 0.5513090899999998 0.5502857600000000 H
atom_frac 0.1204549800000000 0.4504264700000000 0.4514289100000001 H
atom_frac 0.9823884899999999 0.8013897300000002 0.5565705599999999 H
atom_frac 0.0182611200000000 0.2013628300000000 0.4456806200000000 H
atom_frac 0.8621928300000000 0.9054887800000000 0.0153241300000000 H
atom_frac 0.1380349100000000 0.0955057200000000 0.9830773800000000 H
atom_frac 0.5533164300000000 0.6518213000000002 0.6921261299999999 C
atom_frac 0.4474729700000000 0.3482961800000000 0.3081275600000000 C
atom_frac 0.6826879300000001 0.6375784200000000 0.9449781000000002 C
atom_frac 0.3176662200000000 0.3624800300000001 0.0544748700000000 C
atom_frac 0.3905898900000000 0.5838665000000001 0.7345675199999999 C
atom_frac 0.6100526400000000 0.4156136600000001 0.2650939700000000 C
atom_frac 0.2632610500000000 0.6430214600000002 0.7947440200000000 C
atom_frac 0.7374720600000000 0.3563599800000000 0.2051861100000000 C
atom_frac 0.9699810100000000 0.6310083000000001 0.8803722000000000 C
atom_frac 0.0303978000000000 0.3691051800000000 0.1188762000000000 C
atom_frac 0.1098330900000000 0.5700874400000000 0.8204016300000000 C
atom_frac 0.8905719700000000 0.4299739200000001 0.1788701100000000 C
atom_frac 0.2281209200000000 0.3808321600000000 0.7328022400000000 C
atom_frac 0.7723918500000000 0.6194838600000001 0.2661438200000000 C
atom_frac 0.0923340900000000 0.4381680900000001 0.7863803300000000 C
atom_frac 0.9080299200000000 0.5622839499999999 0.2123886300000001 C
atom_frac 0.8113580200000000 0.5731569200000001 0.8914465400000000 C
atom_frac 0.1890193600000000 0.4267949100000001 0.1080871900000000 C
atom_frac 0.4012606900000000 0.0867319400000000 0.6122742600000000 C
atom_frac 0.5970207300000000 0.9108630100000000 0.3887880200000000 C
atom_frac 0.1232699500000000 0.0116919200000000 0.6800852300000000 C
atom_frac 0.8744423500000000 0.9880361700000001 0.3205476800000000 C
atom_frac 0.7538846700000000 0.8488075899999999 0.6528221799999999 C
atom_frac 0.2454060000000000 0.1526032500000000 0.3482629500000000 C
atom_frac 0.1009949800000000 0.1415364600000000 0.7166470500000000 C
atom_frac 0.8977148400000000 0.8589799599999999 0.2830197100000000 C
atom_frac 0.2335736400000000 0.2398069300000000 0.6990414700000001 C
atom_frac 0.7660557800000000 0.7598667800000001 0.3004777100000000 C
atom_frac 0.6000871100000000 0.7910145600000000 0.7029548300000000 C
atom_frac 0.3991549000000000 0.2096479800000000 0.2972848800000000 C
atom_frac 0.2746510000000000 -0.0168504900000000 0.6261098899999999 C
atom_frac 0.7229344000000000 1.0151100099999999 0.3750716900000000 C
atom_frac 0.9880738299999999 0.7518985700000002 0.9273076699999999 C
atom_frac 0.0121686800000000 0.2485989800000000 0.0715962900000000 C
atom_frac 0.8052627200000000 0.6235648300000000 0.5926348000000001 C
atom_frac 0.1966311300000000 0.3778912200000001 0.4088553699999999 C
atom_frac 0.8589581400000000 0.7636306800000001 0.5972521299999999 C
atom_frac 0.1417585300000000 0.2381342700000000 0.4043874300000000 C
atom_frac 0.8525655699999999 0.8097137500000001 0.9793371099999999 C
atom_frac 0.1476844100000000 0.1908927100000000 0.0194738800000000 C
atom_frac 0.3715515300000000 0.4546110800000001 0.7076433900000000 N
atom_frac 0.6291427699999999 0.5454614400000000 0.2911091599999999 N
atom_frac 0.7000296700000000 0.7547015000000001 0.9889088600000000 N
atom_frac 0.3002643600000000 0.2456429900000000 0.0102416300000000 N
atom_frac 0.6558343200000000 0.5700104000000000 0.6375896500000000 N
atom_frac 0.3462884400000000 0.4304725800000000 0.3634359200000000 N
atom_frac 0.3816820899999999 0.2108161200000000 0.6479913099999999 N
atom_frac 0.6177015300000001 0.7872658500000002 0.3524248200000000 N
atom_frac 0.3674948400000000 0.9458262500000001 0.9061530799999999 Cl
atom_frac 0.6315818700000000 0.0542839600000000 0.0942943300000000 Cl
atom_frac 0.6838500700000000 0.2449509100000000 0.8074061899999999 Cl
atom_frac 0.3176897900000000 0.7528220600000001 0.1924469300000000 Cl
atom_frac 0.7485979300000000 0.3006259200000000 0.5132862400000000 Cl
atom_frac 0.2526517400000000 0.6992876700000002 0.4835964300000000 Cl
