#=======================================================
# FHI-aims file: ./geometry.in
# Created using the Atomic Simulation Environment (ASE)
# Wed Feb  9 14:46:20 2022
#=======================================================
lattice_vector -4.4123837999999997 0.1111274900000000 -0.4202449800000000 
lattice_vector -3.6524383500000002 0.0529785100000000 15.0290340600000007 
lattice_vector -1.8531746000000000 15.3154710999999999 -0.1707393400000000 
atom_frac 0.1246564200000000 0.2498571700000000 0.7500298499999999 Ag
atom_frac 0.8753432099999999 0.7501428500000000 0.2499704000000000 Ag
atom_frac 0.1627119500000001 0.4189841499999999 0.8570841099999997 H
atom_frac 0.0819459500000000 0.8568751100000001 0.0801379700000000 H
atom_frac 0.4375806600000001 0.0805673000000000 0.6431672100000000 H
atom_frac 0.0202816400000000 0.6428537900000001 0.4193581000000000 H
atom_frac 0.8372861500000000 0.5810159900000000 0.1429156300000000 H
atom_frac 0.9180529699999999 0.1431248200000000 0.9198621299999998 H
atom_frac 0.5624200799999998 0.9194326400000001 0.3568328399999999 H
atom_frac 0.9797195899999999 0.3571458600000000 0.5806419099999999 H
atom_frac 0.6540738200000000 0.3298241600000000 0.9191058399999998 C
atom_frac 0.4853308200000000 0.9186829200000001 0.1700901900000000 C
atom_frac 0.9031952700000000 0.1700226400000000 0.5811522099999998 C
atom_frac 0.5749562400000000 0.5812184099999999 0.3297918200000000 C
atom_frac 0.3459247600000001 0.6701758700000001 0.0808940900000000 C
atom_frac 0.5146683600000002 0.0813170200000000 0.8299099099999999 C
atom_frac 0.0968050300000000 0.8299772600000000 0.4188479500000000 C
atom_frac 0.4250445000000000 0.4187813400000001 0.6702082199999998 C
atom_frac 0.2705857200000001 0.4367072700000000 0.9878455199999998 C
atom_frac 0.2072883200000000 0.9875005800000000 0.0633408800000000 C
atom_frac 0.6951593800000001 0.0632498100000000 0.5123225099999998 C
atom_frac 0.2589724500000000 0.5123252900000000 0.4366118199999999 C
atom_frac 0.7294124000000002 0.5632928699999998 0.0121542200000000 C
atom_frac 0.7927106100000001 0.0124993400000000 0.9366592199999999 C
atom_frac 0.3048412799999999 0.9367501400000000 0.4876775499999999 C
atom_frac 0.7410287899999998 0.4876743500000000 0.5633881800000000 C
atom_frac 0.0939561000000001 0.4559796500000000 0.9183791599999999 C
atom_frac 0.0501937000000001 0.9182566499999999 0.0434901300000000 C
atom_frac 0.4676257500000001 0.0437633400000000 0.5817610000000000 C
atom_frac 0.0126401900000001 0.5815884399999999 0.4562176900000000 C
atom_frac 0.9060420200000000 0.5440205000000001 0.0816205800000000 C
atom_frac 0.9498052299999999 0.0817432700000000 0.9565099599999999 C
atom_frac 0.5323749400000000 0.9562366200000001 0.4182390499999999 C
atom_frac 0.9873610600000000 0.4184112000000000 0.5437823099999999 C
atom_frac 0.1709162800000000 0.4847376100000000 0.0696308400000000 C
atom_frac 0.1554387300000000 0.0694021100000000 0.0158052400000000 C
atom_frac 0.7259875700000000 0.0154634600000000 0.4303948300000000 C
atom_frac 0.2407780400000001 0.4305748100000000 0.4844202200000000 C
atom_frac 0.8290817800000000 0.5152625400000002 0.9303688599999999 C
atom_frac 0.8445601899999997 0.9305978100000000 0.9841948599999999 C
atom_frac 0.2740132500000003 0.9845365000000000 0.5696051599999999 C
atom_frac 0.7592232300000002 0.5694248199999999 0.5155797700000000 C
atom_frac 0.7924645400000000 0.2773942700000000 0.8683371199999999 N
atom_frac 0.5734534000000001 0.8681209399999998 0.2223495200000000 N
atom_frac 0.9389522700000003 0.2223867900000000 0.6318465500000000 N
atom_frac 0.6637824700000000 0.6320442200000000 0.2775653299999999 N
atom_frac 0.2075346700000001 0.7226056799999999 0.1316630100000000 N
atom_frac 0.4265461000000000 0.1318790300000000 0.7776505599999999 N
atom_frac 0.0610475100000001 0.7776130800000000 0.3681537199999999 N
atom_frac 0.3362175900000001 0.3679556500000001 0.7224347399999999 N
atom_frac 0.5248524100000000 0.3794067500000001 -0.0160281100000000 N
atom_frac 0.4040219400000000 -0.0165858200000000 0.1207665100000000 N
atom_frac 0.8883448600000000 0.1205228800000000 0.5163003799999999 N
atom_frac 0.5098011500000000 0.5163368100000000 0.3791442300000000 N
atom_frac 0.4751457000000001 0.6205934000000000 1.0160279099999998 N
atom_frac 0.5959769800000001 1.0165857400000000 0.8792335899999999 N
atom_frac 0.1116557699999999 0.8794770700000000 0.4836997099999999 N
atom_frac 0.4902000800000000 0.4836628700000000 0.6208557699999999 N
atom_frac 0.3992180100000000 0.4648976300000000 0.1477534700000000 Cl
atom_frac 0.3641211000000000 0.1472368100000000 0.0361345700000000 Cl
atom_frac 1.0134620900000000 0.0355128600000000 0.3523051900000000 Cl
atom_frac 0.5476733900000001 0.3527111600000000 0.4643064000000000 Cl
atom_frac 0.6007800300000002 0.5351025400000000 0.8522463399999999 Cl
atom_frac 0.6358778200000000 0.8527631199999999 0.9638655199999999 Cl
atom_frac -0.0134614599999999 0.9644871299999999 0.6476949599999999 Cl
atom_frac 0.4523278700000000 0.6472885000000000 0.5356936000000000 Cl
