#=======================================================
# FHI-aims file: ./geometry.in
# Created using the Atomic Simulation Environment (ASE)
# Fri Jan 14 15:06:22 2022
#=======================================================
lattice_vector 13.4150357939999996 -0.0017459100000000 4.5434939659999998 
lattice_vector 0.7743983950000000 14.4758413160000003 4.1849313070000003 
lattice_vector 0.0478985090000000 -0.0081696410000000 21.8253843630000013 
atom_frac 0.4999970240730108 0.0000177950330809 0.4999789183834266 Mn
atom_frac 0.6759134080396193 0.1940317067678237 0.2707724201571793 Mn
atom_frac 0.3240839834283448 0.8059720324341910 0.7292150516577746 Mn
atom_frac 0.5020439476804270 0.0429630077366383 0.3242687046980564 Mn
atom_frac 0.4980012854842001 0.9570262236700412 0.6757070076752784 Mn
atom_frac 0.8558323557473103 0.3662415606818071 0.2069257983006666 Mn
atom_frac 0.1441672645552288 0.6337594417155042 0.7931080106887620 Mn
atom_frac 0.4078446231988053 0.7452904874997157 0.4204311259250844 H
atom_frac 0.5922395269509053 0.2546939324370995 0.5795791020641727 H
atom_frac 0.3613251658785542 0.7870846084078879 0.5301398627232459 H
atom_frac 0.6387586407511776 0.2129053417743663 0.4698771654708194 H
atom_frac 0.3069716217137567 0.5028730782692321 0.6334352133450166 H
atom_frac 0.6929824698003914 0.4971189116416069 0.3665516125731897 H
atom_frac 0.4695016011753025 0.5072910708767678 0.2931996026886595 H
atom_frac 0.5305165921437336 0.4927258052142348 0.7068039288634934 H
atom_frac 0.4989371567727403 0.3395617059578838 0.2925799389674850 H
atom_frac 0.5010584996630669 0.6604593020405288 0.7074054991779661 H
atom_frac 0.4156280478245976 0.2658200807180435 0.5072019585391061 H
atom_frac 0.5843841794331368 0.7341719173894459 0.4927869670579312 H
atom_frac 0.2054161588099674 0.0156853359461451 0.3757565379865255 H
atom_frac 0.7945849475969169 0.9843052822151674 0.6242377163825807 H
atom_frac 0.2313644350905619 0.8646670923816372 0.5691411657902633 H
atom_frac 0.7687437317238519 0.1352019325684068 0.4308101308437812 H
atom_frac 0.0701318043644648 0.7926676783761193 0.5947733414843626 H
atom_frac 0.9299658330441503 0.2071896056587690 0.4051851474727427 H
atom_frac 0.5967502811117313 0.7547596184052664 0.8688993158986801 H
atom_frac 0.4032556134748333 0.2452385978162681 0.1310924847942587 H
atom_frac 0.2383137125435226 0.7268038739186551 0.0014042730484221 H
atom_frac 0.7616837184438052 0.2731867356989213 0.9985756280798340 H
atom_frac 0.2868253093280869 0.8295706153204137 0.8852061698900826 H
atom_frac 0.7131802108745121 0.1704220662580268 0.1147711917953984 H
atom_frac 0.4608555850607131 0.3650695175978455 0.2109999301757809 H
atom_frac 0.5391284788037395 0.6349577144449224 0.7890000150947075 H
atom_frac 0.3302926483437857 0.4706426120555349 0.1690536250024266 H
atom_frac 0.6696934693680134 0.5294129492884920 0.8309569552320751 H
atom_frac 0.6901449511220078 0.5303560319932783 0.0581211765011247 H
atom_frac 0.3098562967007580 0.4696325103545647 0.9418670319086927 H
atom_frac 0.9156669261833345 0.6153151518586101 0.0166256500825170 H
atom_frac 0.0842890855521006 0.3846803105895659 0.9833935575406016 H
atom_frac 0.8994730186809505 0.6763842514540741 0.0784237339926578 H
atom_frac 0.1005064569862313 0.3236049970703903 0.9215963623484456 H
atom_frac 0.8176643542470995 0.5868473056746525 0.0943621997241877 H
atom_frac 0.1823208294811280 0.4131329674964375 0.9056657602445880 H
atom_frac 0.4752448815766002 0.8163154380979448 0.1594942685546527 H
atom_frac 0.5247208788137597 0.1836406462276869 0.8405190056922293 H
atom_frac 0.4155212949311107 0.7386373939546970 0.2377389860794565 H
atom_frac 0.5844278566431812 0.2613477062084684 0.7622813456728534 H
atom_frac 0.5384969604132763 0.7116986458581989 0.1905218389876709 H
atom_frac 0.4614379662592468 0.2882484611901077 0.8095036990569753 H
atom_frac 0.0963612815751560 0.6618028085144232 0.0127545889485745 H
atom_frac 0.9036417059294378 0.3381802185884337 0.9872531002951417 H
atom_frac 0.0731252264003857 0.5887457325052450 0.9684794171642322 H
atom_frac 0.9268300840769895 0.4112628463390707 0.0315241341456058 H
atom_frac 0.1844797113819182 0.5709178017146783 0.9918939067605876 H
atom_frac 0.8155010794555861 0.4290638275672407 0.0080898058244046 H
atom_frac 0.0812668709610520 0.3925987978621351 0.1268126790280489 H
atom_frac 0.9187339724371100 0.6073959688235462 0.8731881655429418 H
atom_frac 0.1343602694165966 0.4805781960118478 0.1443300212400516 H
atom_frac 0.8656385942014919 0.5194255462973982 0.8556626416995741 H
atom_frac 0.1909812745761811 0.4458947081633510 0.0682530480448734 H
atom_frac 0.8090127335663196 0.5541028157383678 0.9317386107627142 H
atom_frac 0.6568578014563541 0.8449631155464984 0.4645447602856621 H
atom_frac 0.3431015554310052 0.1550634458549140 0.5354961951487026 H
atom_frac 0.7714702730533745 0.7694907232000573 0.5322982385209512 H
atom_frac 0.2285116768824693 0.2305316975033094 0.4677452221227795 H
atom_frac 0.8830499131695146 0.0302506267823688 0.3319053232821929 H
atom_frac 0.1169855443287062 0.9696743689016429 0.6680888647230745 H
atom_frac 0.8346206848629121 0.9224033614285855 0.1600458068185874 H
atom_frac 0.1652603684816469 0.0775858792905666 0.8399814927813977 H
atom_frac 0.8110501988986413 0.0535326635763695 0.2135127481801930 H
atom_frac 0.1888281860636596 0.9464641746626228 0.7865127337510031 H
atom_frac 0.0129188446639077 0.2104294599176412 0.0343852121921699 H
atom_frac 0.9870692367307540 0.7895114565694427 0.9656762656050616 H
atom_frac 0.0304569645712363 0.3743729757269704 0.3562720201993557 H
atom_frac 0.9695917386419948 0.6256452814049492 0.6437239787898578 H
atom_frac 0.9364900727466363 0.4257837729212923 0.3162078178859246 H
atom_frac 0.0635391409992607 0.5742483067927112 0.6838037915372153 H
atom_frac 0.0628784479420403 0.4591428572629467 0.2790040593173657 H
atom_frac 0.9371465136798348 0.5408864491700952 0.7209906397731274 H
atom_frac 0.1304674364141363 0.2383517883121442 0.1731876087971145 H
atom_frac 0.8694609249095178 0.7616457353846331 0.8268177160599703 H
atom_frac 0.0930247408696587 0.1542759416981170 0.2511295261371203 H
atom_frac 0.9069465258050257 0.8457519929295499 0.7488940248429614 H
atom_frac 0.2208350085430055 0.1833271288327083 0.2152931628684057 H
atom_frac 0.7791379005191743 0.8166883434185550 0.7846806612445363 H
atom_frac 0.1837250966393568 0.2978781575100413 0.3324714187981286 H
atom_frac 0.8163497218357207 0.7021552758853459 0.6674809536441727 H
atom_frac 0.2264049752533381 0.3784860651503905 0.2532469571130704 H
atom_frac 0.7736241511097502 0.6215390658809098 0.7466926937506814 H
atom_frac 0.2717217105171840 0.2606081231581854 0.2640795166999084 H
atom_frac 0.7283115255512982 0.7394239108044187 0.7358501659217535 H
atom_frac 0.6089316182273379 0.7469219245354066 0.3084731892473799 H
atom_frac 0.3910180080809197 0.2530037621291399 0.6915396505158922 H
atom_frac 0.6759791444739632 0.8312800869375606 0.2384962706111295 H
atom_frac 0.3240056776685661 0.1686297171517808 0.7615196186024704 H
atom_frac 0.6553810082737215 0.7226707884605827 0.2280909537901934 H
atom_frac 0.3445666067413029 0.2772507553606757 0.7719258481398724 H
atom_frac 0.3598869607776861 0.9867691348354555 0.2674635471715446 H
atom_frac 0.6401537275566440 0.0132470387009320 0.7325143598227939 H
atom_frac 0.3255103206356650 0.8698350062145294 0.2882879846806290 H
atom_frac 0.6744883519192726 0.1301832585178103 0.7117321734334752 H
atom_frac 0.3804301664058229 0.9274526100436588 0.2035113012007271 H
atom_frac 0.6195464536052737 0.0725221258732347 0.7964993432528544 H
atom_frac 0.1407091672878948 0.4265378286973415 0.7489016900082959 H
atom_frac 0.8592975062339362 0.5734728212087246 0.2510884807842189 H
atom_frac 0.2250198151532814 0.3299307448125646 0.6612582891772263 H
atom_frac 0.7749258985190367 0.6701040649885922 0.3387124484274935 H
atom_frac 0.7262281950658930 0.0415092346429304 0.9477974333987332 H
atom_frac 0.2738571566779839 0.9584254753903635 0.0522623961497715 H
atom_frac 0.8094947117734037 0.9462545484403148 0.8601825775502191 H
atom_frac 0.1905707850649421 0.0537160640499863 0.1398470102090953 H
atom_frac 0.0746207372216716 0.3184713656529822 0.5606943794738583 H
atom_frac 0.9253645834472551 0.6816408046360112 0.4392505302935065 H
atom_frac 0.0354427977948788 0.4498474234177009 0.6215741757769493 H
atom_frac 0.9645748202660230 0.5502730440224893 0.3783770813694288 H
atom_frac 0.1821135081025247 0.8168792858162274 0.2689178151431264 H
atom_frac 0.8178247396135986 0.1831901031923522 0.7311234463017938 H
atom_frac 0.2255692844559576 0.6827679423872935 0.2088911839452336 H
atom_frac 0.7743446384463654 0.3172972933661952 0.7911403594913152 H
atom_frac 0.7222591098226373 0.9031455752206552 0.1004980193536157 H
atom_frac 0.2777052123690282 0.0968208858430728 0.8995415136982173 H
atom_frac 0.7320467018528023 0.7938863963633975 0.0263670129876204 H
atom_frac 0.2678871881218755 0.2061042337400848 0.9736627664134474 H
atom_frac 0.3847393205028382 0.6931901824577836 0.4675068146720704 C
atom_frac 0.6153075011429152 0.3068087344479407 0.5324937426060927 C
atom_frac 0.3573408876635611 0.7163356227514084 0.5284098674878308 C
atom_frac 0.6427140936705058 0.2836508625661196 0.4715941239496999 C
atom_frac 0.3255925102077625 0.6483435298207495 0.5887162876563607 C
atom_frac 0.6744228386755396 0.3516450239474622 0.4112891430903856 C
atom_frac 0.3866746033766332 0.6008457216992082 0.4654089033390393 C
atom_frac 0.6133414488864304 0.3991566466989696 0.5345937320810278 C
atom_frac 0.3284931875929402 0.5564215278109258 0.5870786557324761 C
atom_frac 0.6714924403326421 0.4435656381964462 0.4129222318950028 C
atom_frac 0.3606689244001374 0.5316815581322628 0.5261150011977946 C
atom_frac 0.6393311616644013 0.4683138948870321 0.4738780803338186 C
atom_frac 0.3687337980341213 0.4328705303486797 0.5265019203381555 C
atom_frac 0.6312578308224629 0.5671166305063551 0.4734885553933522 C
atom_frac 0.4060854395328376 0.4098935996143068 0.4609401846453666 C
atom_frac 0.5939387348571825 0.5900977121944990 0.5390541745507987 C
atom_frac 0.4248981521808303 0.4794438054107245 0.4003374361188249 C
atom_frac 0.5751301857787467 0.5205523472189739 0.5996652081247335 C
atom_frac 0.4161575912828611 0.5780813442599777 0.3999237600741734 C
atom_frac 0.5838862660232138 0.4219168850077466 0.6000830443415026 C
atom_frac 0.4558433352031984 0.4532918137851283 0.3396115885552219 C
atom_frac 0.5441785454049181 0.5467133147127184 0.6603842643094635 C
atom_frac 0.4715813150241814 0.3605624697074035 0.3392753066770595 C
atom_frac 0.5284168010821019 0.6394543962373404 0.6607145372882641 C
atom_frac 0.4587942613158377 0.2916751465925103 0.3992983786531282 C
atom_frac 0.5412022495737359 0.7083313519125553 0.6006823328414228 C
atom_frac 0.4252296953209935 0.3171276183654824 0.4598326416531221 C
atom_frac 0.5747824020842884 0.6828664537456389 0.5401591205684682 C
atom_frac 0.4841417380297485 0.1930485649374489 0.3984415489212337 C
atom_frac 0.5158337950292662 0.8069600013008865 0.6015353440529411 C
atom_frac 0.3308926792924751 0.9778760106400242 0.4504785351508929 C
atom_frac 0.6691366188436942 0.0221056159492434 0.5494900399526799 C
atom_frac 0.2303198145553509 0.9414519122215096 0.4695886019859258 C
atom_frac 0.7697104298031975 0.0585255756705507 0.5303906497226478 C
atom_frac 0.1762217939930295 0.9667333540053632 0.4236367392132365 C
atom_frac 0.8238021174779675 0.0332496674746352 0.5763565152613805 C
atom_frac 0.1905844546356903 0.8810950936073353 0.5324611033365797 C
atom_frac 0.8095015642776389 0.1188209121257842 0.4675054973809837 C
atom_frac 0.1005685364389990 0.8415023534411074 0.5470193660337017 C
atom_frac 0.8995194556097346 0.1583791154701900 0.4529529880440819 C
atom_frac 0.0471083655818916 0.8644346878988002 0.5002818486668446 C
atom_frac 0.9529650107728928 0.1354799425373513 0.4996986439898804 C
atom_frac 0.4721014681535394 0.8522172031109249 0.7989031984243624 C
atom_frac 0.5279051034717810 0.1477823930241797 0.2010854476407431 C
atom_frac 0.5180956444235748 0.7485787379398656 0.8975271474622915 C
atom_frac 0.4819100201926502 0.2514236216350696 0.1024620739046824 C
atom_frac 0.3894127715679900 0.6812786546132797 0.9990422477315021 C
atom_frac 0.6105857257093348 0.3187188672340255 0.0009448114888500 C
atom_frac 0.4917728926965168 0.6910831957857936 0.9623540542641035 C
atom_frac 0.5082306391603238 0.3089302170360213 0.0376362407655435 C
atom_frac 0.3577446414366249 0.6160793615803258 0.0651786721704397 C
atom_frac 0.6422601276442420 0.3839381984777645 0.9348156100870995 C
atom_frac 0.3162924677165506 0.7334640198437652 0.9714679104657901 C
atom_frac 0.6837119252914335 0.2665224435973386 0.0285081290839599 C
atom_frac 0.3432349400106602 0.7902119108702975 0.9073801966919248 C
atom_frac 0.6567651742262015 0.2097710989005108 0.0925973958175916 C
atom_frac 0.4446115552976124 0.7963363182447478 0.8693069032191828 C
atom_frac 0.5553979772368506 0.2036508426661854 0.1306798454079115 C
atom_frac 0.4819061803555229 0.4248417657197405 0.1689939801357028 C
atom_frac 0.5180913441790196 0.5751723378147061 0.8309974330253522 C
atom_frac 0.4095421635772211 0.4821537936220323 0.1452674139668986 C
atom_frac 0.5904543093552093 0.5178782730620880 0.8547281046613903 C
atom_frac 0.4369195501804909 0.5558071713410299 0.0885708950631070 C
atom_frac 0.5630751022157695 0.4442179844037779 0.9114199131510645 C
atom_frac 0.5395079447528984 0.5708167409785785 0.0551591687231010 C
atom_frac 0.4604874157254955 0.4291959818620013 0.9448343342286449 C
atom_frac 0.5714046535759181 0.6418221703416475 0.9912638581898605 C
atom_frac 0.4286073518813679 0.3581864086796712 0.0087278906226872 C
atom_frac 0.6115662550729155 0.5161800902001160 0.0824193590738318 C
atom_frac 0.3884328583385468 0.4838195056531515 0.9175703814750520 C
atom_frac 0.5837324171143193 0.4434910992827311 0.1392514078455633 C
atom_frac 0.4162613166724184 0.5565112594793006 0.8607389228285026 C
atom_frac 0.6602846239394680 0.3843916092720078 0.1688129864848520 C
atom_frac 0.3397135496408978 0.6156114397181580 0.8311753712236011 C
atom_frac 0.8946623516502897 0.6081318086207759 0.0706959901978052 C
atom_frac 0.1053146117013881 0.3918622747570095 0.9293232438978336 C
atom_frac 0.4864684459899848 0.7681842878577001 0.2049689023015658 C
atom_frac 0.5134886370439061 0.2317800849589489 0.7950441308843209 C
atom_frac 0.1048752410207072 0.5904925148360008 0.0076919315857680 C
atom_frac 0.8951063120164732 0.4095008661898234 0.9923058635328558 C
atom_frac 0.1196417004271524 0.4574508306252412 0.1048700135339047 C
atom_frac 0.8803540296588465 0.5425425499277309 0.8951239140076125 C
atom_frac 0.6866293684343319 0.9982006806398684 0.3642585255927671 C
atom_frac 0.3133769779230207 0.0017768113144427 0.6357330312106271 C
atom_frac 0.7614218055501779 0.9435792660072901 0.3958986502249288 C
atom_frac 0.2385866949148081 0.0563740459597426 0.6040893054694080 C
atom_frac 0.7323134794060381 0.8669206157330009 0.4500459069250197 C
atom_frac 0.2676649216218578 0.1330741607076433 0.5499770186293844 C
atom_frac 0.7959801204270247 0.8251653435078481 0.4875198836967414 C
atom_frac 0.2039866142526350 0.1748501610433165 0.5125124923333431 C
atom_frac 0.8915822437772363 0.8576101011606312 0.4701691353053618 C
atom_frac 0.1084142845075817 0.1423812175428124 0.5298433487060166 C
atom_frac 0.9244772941098061 0.9292715241321402 0.4116543997133492 C
atom_frac 0.0755282617488433 0.0706935359474841 0.5883419963252123 C
atom_frac 0.8589205619712742 0.9721592552303941 0.3749876643950998 C
atom_frac 0.1410934117183515 0.0277767866591390 0.6249992561066903 C
atom_frac 0.8713561722321828 0.9867968555445972 0.1326107887343824 C
atom_frac 0.1285765838135120 0.0131744340764683 0.8674229351832351 C
atom_frac 0.8588227987507793 0.0595354637589480 0.1623692811503759 C
atom_frac 0.1410926979604952 0.9404510187961390 0.8376596243548061 C
atom_frac 0.9086958727182264 0.1412773125311019 0.1262548183053696 C
atom_frac 0.0912327475344412 0.8587008862008075 0.8737816490597580 C
atom_frac 0.9727618394090526 0.1479342257510510 0.0616945780735137 C
atom_frac 0.0271979047502455 0.8520204970016321 0.9383554896971585 C
atom_frac 0.9861291253055740 0.0749689531267990 0.0314550405649570 C
atom_frac 0.0138336829682117 0.9249705800087398 0.9686087564355716 C
atom_frac 0.9338763318588830 0.9935428927270632 0.0671745221162539 C
atom_frac 0.0660886784651922 0.0063980151557388 0.9328766401365627 C
atom_frac 0.0548930443423146 0.0849390384954276 0.9631028436092137 C
atom_frac 0.9450696309018838 0.9150156925401159 0.0369612742219376 C
atom_frac 0.8937946966477953 0.2214029690254549 0.1559139997630155 C
atom_frac 0.1061553388087262 0.7785793713175549 0.8441121753569120 C
atom_frac 0.0341133581087405 0.3257047827008605 0.2718835976775793 C
atom_frac 0.9659074693720341 0.6743314325844806 0.7281133863840237 C
atom_frac 0.0148648780611964 0.4010490668379062 0.3080549972887781 C
atom_frac 0.9851695282889851 0.5989843865984881 0.6919415222970146 C
atom_frac 0.1433422016346810 0.2104703415022726 0.2221643188411306 C
atom_frac 0.8566235183075577 0.7895520507095452 0.7778321259118498 C
atom_frac 0.2060694634603095 0.3066994250361644 0.2781554042553438 C
atom_frac 0.7939742720630392 0.6933436699693657 0.7217864662884635 C
atom_frac 0.9533599810810286 0.8195098623356215 0.5153523077612758 C
atom_frac 0.0466739713923729 0.1804538210238320 0.4846466880771628 C
atom_frac 0.2900136927515646 0.6737730155044089 0.6542414334171623 C
atom_frac 0.7099709983036815 0.3262037952173811 0.3457717148339583 C
atom_frac 0.0839397656163499 0.9300434846036938 0.4388624697974706 C
atom_frac 0.9161009482988260 0.0699063833734357 0.5611363929782982 C
atom_frac 0.6229688557553743 0.7766911031083622 0.2545414897261081 C
atom_frac 0.3769997981215241 0.2232408022665098 0.7454698620212667 C
atom_frac 0.0261281344396522 0.9626808618919752 0.3904427779835800 C
atom_frac 0.9738987296808830 0.0372897256565921 0.6095508714349834 C
atom_frac 0.4811873852555735 0.8855602054052838 0.2642587775232812 C
atom_frac 0.5188281579050198 0.1144262642759131 0.7357259360196265 C
atom_frac 0.3809627400959740 0.9200610143341875 0.2548603888642447 C
atom_frac 0.6190496776127361 0.0799399700043324 0.7451386867454487 C
atom_frac 0.9604544797499415 0.5380265241346149 0.1040094774064785 C
atom_frac 0.0395334385640069 0.4619592645539825 0.8959985284286913 C
atom_frac 0.1139298296044373 0.3627554364454184 0.7480406141922271 C
atom_frac 0.8860423990254488 0.6372710952625409 0.2519449764247597 C
atom_frac 0.1576990986365274 0.3121422231904347 0.7033310882193785 C
atom_frac 0.8422491602999783 0.6879001854395952 0.2966390370263952 C
atom_frac 0.0049465434978799 0.2226133307541645 0.7854218568217631 C
atom_frac 0.9950098632574225 0.7774284024245616 0.2145737345116885 C
atom_frac 0.9359424016966498 0.1573220122259399 0.8194256391398014 C
atom_frac 0.0640270941261321 0.8427121270852350 0.1805760143876824 C
atom_frac 0.7899022575537770 0.0621126741281586 0.9038483014299885 C
atom_frac 0.2101531616865486 0.9378510354122084 0.0961924969395511 C
atom_frac 0.8333968266038241 0.0127044364657465 0.8583449913898132 C
atom_frac 0.1666485879763044 0.9872786055071070 0.1416799791352759 C
atom_frac 0.1661516795848996 0.5337367942997345 0.4466601304272543 C
atom_frac 0.8339387202550411 0.4663726545017397 0.5533362772949745 C
atom_frac 0.1937995182920744 0.5967238953013521 0.3858261740957118 C
atom_frac 0.8062996064142069 0.4034014506914332 0.6141836963891407 C
atom_frac 0.0959011552725784 0.3893360044739963 0.5372065412739175 C
atom_frac 0.9041136579089510 0.6107685732914090 0.4627433065570656 C
atom_frac 0.0753732503925946 0.4577743339964897 0.5688160054036258 C
atom_frac 0.9246551513534627 0.5423267958425767 0.4311417547633383 C
atom_frac 0.1938038358353467 0.7442986941426564 0.2927208258127294 C
atom_frac 0.8062186857966864 0.2557851911802516 0.7072836177647588 C
atom_frac 0.2155647654177528 0.6750843987815641 0.2617342658761217 C
atom_frac 0.7844556432779228 0.3250105366856458 0.7382657496473400 C
atom_frac 0.6722948390870797 0.9089634323316602 0.0705835418396391 C
atom_frac 0.3276505822482391 0.0910334221469213 0.9294563889863312 C
atom_frac 0.6778791630646738 0.8519630842325512 0.0316903069298533 C
atom_frac 0.3220541928493431 0.1480365287385084 0.9683438175867991 C
atom_frac 0.5364809276721872 0.9733509215806532 0.0118534177233443 C
atom_frac 0.4634765000851218 0.0266701149978488 0.9881908313984979 C
atom_frac 0.0043473333743194 0.3242106781127205 0.8096731863337040 S
atom_frac 0.9956488010835827 0.6758144791880339 0.1903200621467889 S
atom_frac 0.1009778402368795 0.2122976318696104 0.7124587832016331 S
atom_frac 0.8989479424149209 0.7877599689024918 0.2875062352746481 S
atom_frac 0.9342039729157676 0.0592280617980876 0.7913429715012014 S
atom_frac 0.0657556725349693 0.9408095241583323 0.2086477008282656 S
atom_frac 0.8385488288672603 0.1672759620557399 0.8918692895199951 S
atom_frac 0.1614433286984394 0.8327264098875913 0.1081447340421064 S
atom_frac 0.1841442947410457 0.7160477631371192 0.3772864051214809 S
atom_frac 0.8159354641384553 0.2840651392880815 0.6227115555613240 S
atom_frac 0.2313064886756209 0.5644242574159718 0.3099456809834393 S
atom_frac 0.7688135480535507 0.4356617146259723 0.6900632623071914 S
atom_frac 0.1642055904161950 0.4159840682425581 0.4532235481327120 S
atom_frac 0.8358586498926713 0.5841419345022130 0.5467334366208475 S
atom_frac 0.1198127918291405 0.5653555870329398 0.5224932957811034 S
atom_frac 0.8802688204612180 0.4347255355488924 0.4774993763579758 S
atom_frac 0.5934246044821521 0.8732431938706993 0.9858253010233682 S
atom_frac 0.4065181076427037 0.1267881958760810 0.0142062808800461 S
atom_frac 0.5819588269223176 0.9995822254061152 0.0707043966204496 S
atom_frac 0.4180161675635575 0.0004187782070844 0.9293368295195064 S
atom_frac 0.0576133053474663 0.5271586316932542 0.0714980138406887 N
atom_frac 0.9423752392285251 0.4728299139761276 0.9284987947945140 N
atom_frac 0.1256419996849161 0.2831798440620971 0.2579216037620711 N
atom_frac 0.8743627484804789 0.7168522117886124 0.7420529506015684 N
atom_frac 0.5296425031630038 0.8143452502340479 0.2396568813329979 N
atom_frac 0.4703362300008322 0.1856191200646577 0.7603470635044828 N
atom_frac 0.3465287526221985 0.3712944038819756 0.5794457920262559 O
atom_frac 0.6534333951585368 0.6286872243075267 0.4205399690535926 O
atom_frac 0.4352975150296671 0.6396133783311412 0.3466220887508840 O
atom_frac 0.5647933361269820 0.3603848516004005 0.6533758489685013 O
atom_frac 0.4693920849988515 0.1341407994783665 0.4542930240278052 O
atom_frac 0.5305582488428655 0.8658650027215272 0.5456878120522999 O
atom_frac 0.5184812861826984 0.1729677524895479 0.3413266459984640 O
atom_frac 0.4814981574383592 0.8270373626895873 0.6586546764432057 O
atom_frac 0.7189160672450612 0.0598827700335178 0.3107007782572849 O
atom_frac 0.2810941748440570 0.9401168354209658 0.6893035964778490 O
atom_frac 0.5933291475413611 0.9819762255953107 0.3924430106986208 O
atom_frac 0.4066635130046166 0.0180054140657973 0.6075565562057789 O
atom_frac 0.3776423289114135 0.9527022864557321 0.4942433339562485 O
atom_frac 0.6223903346324916 0.0473118050364079 0.5057192319015726 O
atom_frac 0.3637142587249399 0.0296610245834188 0.3920946805530576 O
atom_frac 0.6362979577609239 0.9702825889734541 0.6078444193447226 O
atom_frac 0.6611205145960211 0.6582137630537374 0.9625550321600185 O
atom_frac 0.3388788682154456 0.3417809987148672 0.0374374119515508 O
atom_frac 0.2681548683146318 0.6109159151074337 0.0995968180274715 O
atom_frac 0.7318499303213811 0.3891265180031239 0.9004046015018686 O
atom_frac 0.6281241500096330 0.3098962789923758 0.2120914343438401 O
atom_frac 0.3718645755385950 0.6901026235115423 0.7878960198220923 O
atom_frac 0.7482695800283424 0.4114498588457138 0.1501234630355625 O
atom_frac 0.2517212139811136 0.5885511238739837 0.8498773653002800 O
atom_frac 0.9247620396082465 0.4904434111238343 0.1635864554845057 O
atom_frac 0.0752458000680889 0.5095458349036476 0.8364231548440342 O
atom_frac 0.8261617000447359 0.2187444345553473 0.2126555386750510 O
atom_frac 0.1738114592540825 0.7812503449715748 0.7873739756681744 O
atom_frac 0.9455327650944553 0.2914884338203547 0.1260151239067042 O
atom_frac 0.0544177946378994 0.7084980485856461 0.8740060242092866 O
atom_frac 0.9662073753111643 0.3011735382915361 0.2550219486887286 O
atom_frac 0.0337857009907552 0.6988647540138472 0.7449891196667622 O
atom_frac 0.5200337030831932 0.9203342304291622 0.2967505344408893 O
atom_frac 0.4800174572355472 0.0796694998913452 0.7032097093871171 O
atom_frac 0.1020256200522098 0.1560493146577996 0.9323529524210841 O
atom_frac 0.8979147676693413 0.8439040327769616 0.0677124049529000 O
atom_frac 0.5618889735384796 0.8668124083800633 0.7647663920336994 O
atom_frac 0.4381315647719504 0.1331906430069125 0.2352214330817758 O
atom_frac 0.3995172294246671 0.8861346965415392 0.7733180210852593 O
atom_frac 0.6004945313744015 0.1138531504537781 0.2266598848419933 O
atom_frac 0.9262896701412230 0.7533850709377816 0.5649597504571274 O
atom_frac 0.0737693733883731 0.2465841316287296 0.4350210510366849 O
atom_frac 0.2475656013478869 0.6121204022515272 0.7057326044238152 O
atom_frac 0.7524003088816329 0.3878722905796079 0.2942731609118140 O
atom_frac 0.3039603908439474 0.7556724312304507 0.6540696074615298 O
atom_frac 0.6960266976683299 0.2443147396939906 0.3459396806253636 O
atom_frac 0.0608466315751315 0.0169527832457490 0.3353351007026716 O
atom_frac 0.9391804489046079 0.9830378561980380 0.6646913133699923 O
