#=======================================================
# FHI-aims file: ./geometry.in
# Created using the Atomic Simulation Environment (ASE)
# Wed Feb  9 14:46:18 2022
#=======================================================
lattice_vector 4.5303936299999998 0.0083711100000000 -0.0039110600000000 
lattice_vector -0.0045628100000000 14.4105294900000001 -0.0070167200000000 
lattice_vector 0.0108330000000000 -0.0076584800000000 14.4093932700000007 
atom_frac -0.1199369500000000 0.2503004800000000 0.2497139300000000 Tl
atom_frac 1.1199324600000000 0.7496989500000000 0.7502848400000000 Tl
atom_frac 0.7422069100000001 0.3383679999999999 0.8406009700000000 H
atom_frac 0.7404123300000001 0.6593540500000000 0.3386867100000000 H
atom_frac 0.7440529200000001 0.1625255900000000 0.6589685399999999 H
atom_frac 0.7437203400000000 0.8408949700000000 0.1617941800000000 H
atom_frac 0.2577943300000000 0.6616315300000001 0.1593995400000000 H
atom_frac 0.2595856000000000 0.3406461100000001 0.6613139199999999 H
atom_frac 0.2559468700000000 0.8374741800000000 0.3410319700000000 H
atom_frac 0.2562802500000000 0.1591049700000000 0.8382054099999999 H
atom_frac 0.8871816400000000 0.4301608800000000 0.7735213800000000 H
atom_frac 0.8861915200000001 0.7264987600000001 0.4304711000000000 H
atom_frac 0.8849551900000001 0.0702489800000000 0.7264582900000001 H
atom_frac 0.8862943700000000 0.7735767000000000 0.0695501700000000 H
atom_frac 0.1128176200000000 0.5698390900000001 0.2264788000000000 H
atom_frac 0.1138087300000000 0.2735014000000000 0.5695291000000000 H
atom_frac 0.1150465700000000 0.9297510400000001 0.2735420100000000 H
atom_frac 0.1137085900000000 0.2264232800000000 0.9304494099999999 H
atom_frac 0.1302236800000000 0.3447996100000000 0.8234123899999999 H
atom_frac 0.1284640500000000 0.6764034400000001 0.3449803300000000 H
atom_frac 0.1313392100000000 0.1546374800000000 0.6768907700000000 H
atom_frac 0.1313470900000000 0.8231553500000001 0.1544678800000000 H
atom_frac 0.8697778100000000 0.6552005700000001 0.1765875800000000 H
atom_frac 0.8715338200000001 0.3235963800000000 0.6550194399999999 H
atom_frac 0.8686608400000000 0.8453628700000001 0.3231092899999999 H
atom_frac 0.8686548300000001 0.1768449400000000 0.8455320400000000 H
atom_frac 0.4126593100000001 0.4705031400000000 0.1101300800000000 H
atom_frac 0.4130215500000000 0.3898788300000000 0.4702778399999999 H
atom_frac 0.4113992900000000 0.0294792500000000 0.3895414900000000 H
atom_frac 0.4116026900000000 0.1102256000000000 0.0297896100000000 H
atom_frac 0.5873412000000001 0.5294967400000001 0.8898702299999999 H
atom_frac 0.5869772800000000 0.6101211700000000 0.5297222600000000 H
atom_frac 0.5886013700000000 0.9705207800000000 0.6104588600000000 H
atom_frac 0.5883991300000000 0.8897743600000000 0.9702099400000000 H
atom_frac 0.2299993400000000 0.4854002300000000 0.0624527100000000 C
atom_frac 0.2301820700000000 0.4375377000000000 0.4852647500000000 C
atom_frac 0.2291011500000000 0.0146130100000000 0.4372950700000000 C
atom_frac 0.2293262700000000 0.0625367000000000 0.0147750800000000 C
atom_frac 0.7700013900000001 0.5145996500000000 0.9375475399999998 C
atom_frac 0.7698168500000001 0.5624623200000000 0.5147354500000000 C
atom_frac 0.7708994000000000 0.9853870200000000 0.5627052299999998 C
atom_frac 0.7706753900000001 0.9374633000000002 0.9852245999999999 C
atom_frac 0.1913702800000000 0.4252348600000000 0.9845346099999999 C
atom_frac 0.1909095100000000 0.5154657400000000 0.4252650399999999 C
atom_frac 0.1909322700000000 0.0747039900000000 0.5153688100000000 C
atom_frac 0.1911181900000000 0.9845498200000001 0.0747433800000000 C
atom_frac 0.8086305700000000 0.5747650700000000 0.0154656200000000 C
atom_frac 0.8090894900000000 0.4845343200000001 0.5747351500000000 C
atom_frac 0.8090681900000000 0.9252960600000000 0.4846314700000000 C
atom_frac 0.8088833300000001 0.0154502500000000 0.9252563199999999 C
atom_frac 0.5984134600000000 0.3328687600000000 0.0191071800000000 C
atom_frac 0.5976934800000000 0.4809581300000000 0.3328147200000000 C
atom_frac 0.5977986400000000 0.1668406500000000 0.4808230500000000 C
atom_frac 0.5979172800000000 0.0190928500000000 0.1670152200000000 C
atom_frac 0.4015872600000000 0.6671310200000001 0.9808929300000000 C
atom_frac 0.4023053200000000 0.5190417200000000 0.6671856800000000 C
atom_frac 0.4022019300000000 0.8331592799999998 0.5191771100000000 C
atom_frac 0.4020844500000000 0.9809070200000000 0.8329846599999999 C
atom_frac -0.0413659600000000 0.4429717800000000 0.9190910199999999 C
atom_frac -0.0420371300000000 0.5809075500000001 0.4431317800000000 C
atom_frac -0.0410647600000000 0.0569886100000000 0.5810158800000000 C
atom_frac -0.0410109900000000 0.9190375599999999 0.0568319500000000 C
atom_frac 1.0413667799999999 0.5570281500000001 0.0809092100000000 C
atom_frac 1.0420361400000000 0.4190925300000000 0.5568684199999999 C
atom_frac 1.0410652499999999 0.9430114500000000 0.4189843900000000 C
atom_frac 1.0410124800000002 0.0809625200000000 0.9431677499999999 C
atom_frac -0.0694332300000000 0.3856626500000001 0.8343132400000000 C
atom_frac -0.0708041400000000 0.6656309300000000 0.3859170199999999 C
atom_frac -0.0691723200000000 0.1144684600000000 0.6656977700000000 C
atom_frac -0.0688816700000000 0.8343142700000001 0.1140361200000000 C
atom_frac 1.0694338699999999 0.6143372600000001 0.1656869800000000 C
atom_frac 1.0708029700000001 0.3343691100000000 0.6140831599999999 C
atom_frac 1.0691728700000003 0.8855316000000000 0.3343024999999999 C
atom_frac 1.0688833200000001 0.1656857800000000 0.8859636099999999 C
atom_frac 0.3819439000000000 0.3562219600000000 0.9658242900000000 N
atom_frac 0.3810927100000001 0.5342125900000000 0.3563161600000000 N
atom_frac 0.3816996800000000 0.1434258900000000 0.5341311300000000 N
atom_frac 0.3818352400000000 0.9657807500000000 0.1435881800000000 N
atom_frac 0.6180568800000000 0.6437779600000001 0.0341758800000000 N
atom_frac 0.6189061000000000 0.4657874500000000 0.6436839600000002 N
atom_frac 0.6183009300000000 0.8565741600000000 0.4658690899999999 N
atom_frac 0.6181665100000000 0.0342193000000000 0.8564114200000000 N
atom_frac 0.7969768600000000 0.2993136700000000 0.0612489200000000 N
atom_frac 0.7963101400000000 0.4388648900000000 0.2991427200000000 N
atom_frac 0.7961363000000001 0.2004310200000000 0.4387835299999999 N
atom_frac 0.7962242600000000 0.0612352500000000 0.2005634400000000 N
atom_frac 0.2030237700000000 0.7006859399999998 0.9387510900000000 N
atom_frac 0.2036885600000000 0.5611346500000001 0.7008580400000000 N
atom_frac 0.2038642700000000 0.7995687500000002 0.5612165099999999 N
atom_frac 0.2037774500000000 0.9387643500000001 0.7994368299999999 N
