#=======================================================
# FHI-aims file: ./geometry.in
# Created using the Atomic Simulation Environment (ASE)
# Fri Jan 14 15:06:22 2022
#=======================================================
lattice_vector 14.1266402519999996 0.0179581130000000 -0.0189134040000000 
lattice_vector 0.0331049430000000 17.6214845730000000 -2.7908636320000002 
lattice_vector -0.0267018940000000 0.2529393520000000 19.5816334159999990 
atom_frac 0.1713184454381462 0.2530824254368937 0.2562487329540843 Ag
atom_frac 0.0447236953314345 0.3355179454141748 0.3768593024026359 Ag
atom_frac 0.0447036085088968 0.7562723935120846 0.7583038810344364 Ag
atom_frac 0.9222389029636698 0.8410845051277108 0.8801346888494876 Ag
atom_frac 0.6710722534690203 0.2456899730818378 0.7437622368808121 Ag
atom_frac 0.5446469464346393 0.1643344581572990 0.6239916727532560 Ag
atom_frac 0.5465976514729789 0.7435093974765865 0.2420135878860421 Ag
atom_frac 0.4226048750538424 0.6614768870064437 0.1211596925387539 Ag
atom_frac 0.8285444952866923 0.7469681883524616 0.7437059329282436 Ag
atom_frac 0.9551746666889611 0.6645251817799790 0.6231004588600868 Ag
atom_frac 0.9551451513788647 0.2437800801949165 0.2416408225823687 Ag
atom_frac 0.0777047475679566 0.1590529245685133 0.1199335435472904 Ag
atom_frac 0.3287497741671287 0.7543395341855473 0.2562424922801441 Ag
atom_frac 0.4552459773373201 0.8355709508762600 0.3759162820314189 Ag
atom_frac 0.4532838573432867 0.2565193504666325 0.7580002827912296 Ag
atom_frac 0.5772752064801878 0.3386244319539884 0.8789380582103731 Ag
atom_frac 0.2659099570752018 0.1098571422154251 0.3112557280533181 H
atom_frac 0.2344417818419728 0.0372952383399010 0.4070635910256116 H
atom_frac 0.0001889622567575 0.1937073139228218 0.4577230142749756 H
atom_frac 0.9182326740724136 0.0094474697816196 0.8503296508325704 H
atom_frac 0.9534512218682635 0.0774899219219947 0.7519207667865615 H
atom_frac 0.0974877609551967 0.8712658921506388 0.6624150213645946 H
atom_frac 0.9941769048453820 0.1664224321644383 0.5534770952289351 H
atom_frac 0.9588114850161273 0.1116260281227923 0.6553951418966975 H
atom_frac 0.1428863183868785 0.9214684070733908 0.5841823758510856 H
atom_frac 0.1796162497549005 0.9768426581276302 0.4828295782376343 H
atom_frac 0.9484174725161623 0.4997818192966150 0.6552977697837649 H
atom_frac 0.9756032333960787 0.4308319392544747 0.7545747004329614 H
atom_frac 0.0958858218448668 0.6415260637383611 0.8569502314266941 H
atom_frac 0.2492033766040720 0.4087693519476971 0.2141697126726996 H
atom_frac 0.2198636549477513 0.4808151809340940 0.1176739408486043 H
atom_frac 0.0368705265799250 0.2939725063133948 0.0355258679939539 H
atom_frac 0.9926250173353208 0.3875273342299792 0.8450934357682485 H
atom_frac 0.0287508259760969 0.3303361562872170 0.9455634546694470 H
atom_frac 0.1769325595585513 0.5341131158466295 0.0346193421645964 H
atom_frac 0.1393295160712355 0.5915214885553938 0.9347739596854016 H
atom_frac 0.0755950463212756 0.2790758878222520 0.5225402951922292 H
atom_frac 0.1361418981998525 0.3254986537724919 0.6382780739623186 H
atom_frac 0.1617618482745015 0.5428028930343417 0.5644129928237476 H
atom_frac 0.3321644736774799 0.7302851450792647 0.9910934497128921 H
atom_frac 0.2899324702149569 0.6874023287900644 0.8691562858085007 H
atom_frac 0.3694828095171160 0.4632295504955693 0.9110184173306450 H
atom_frac 0.2285851337856641 0.5854578339148233 0.6524443609125540 H
atom_frac 0.2977057488135768 0.6380408992321736 0.7619055802722557 H
atom_frac 0.2645615477197011 0.4227568001091769 0.8363132936938413 H
atom_frac 0.1954133054501098 0.3699046361731534 0.7272569670087208 H
atom_frac 0.7660378064581579 0.3884911833180382 0.6891454870338549 H
atom_frac 0.7343844290070149 0.4611403647910423 0.5932410915857389 H
atom_frac 0.4998899738517436 0.3059649982693671 0.5420881385049584 H
atom_frac 0.4154364230889626 0.4925967203878585 0.1504868121303602 H
atom_frac 0.4486565862863330 0.4244990981146515 0.2495407106347969 H
atom_frac 0.5987602773122163 0.6277601125190843 0.3379160115042836 H
atom_frac 0.4922530390790242 0.3343399806399532 0.4471556221727370 H
atom_frac 0.4558276171717920 0.3898175142044594 0.3455804034130523 H
atom_frac 0.6451897756736855 0.5762834536476122 0.4150149834156451 H
atom_frac 0.6820191221654637 0.5208059042191735 0.5164440241408244 H
atom_frac 0.4481924316376932 0.0003147603728664 0.3431841029316658 H
atom_frac 0.4754651210895914 0.0685989360206136 0.2436412141062050 H
atom_frac 0.5985582365208726 0.8576310775511972 0.1433870248771640 H
atom_frac 0.7506720345108345 0.0901459542341385 0.7860137355103376 H
atom_frac 0.7220340527174826 0.0180712811513075 0.8824677817209120 H
atom_frac 0.5369027640542186 0.2045223758850271 0.9637106526697465 H
atom_frac 0.4944837229560760 0.1118128095557580 0.1541172082068840 H
atom_frac 0.5306171492602232 0.1687729362822807 0.0537339252602678 H
atom_frac 0.6773833436974641 0.9638416308827118 0.9646780622522256 H
atom_frac 0.6399155939416513 0.9066888890660184 0.0645374163298555 H
atom_frac 0.5735389540043557 0.2183902361728656 0.4781784411312061 H
atom_frac 0.6349302270255207 0.1718146097643043 0.3628512334383416 H
atom_frac 0.6632444232262243 0.9549785214904319 0.4374174948907665 H
atom_frac 0.8314060669170971 0.7705362512526862 0.0087248247355518 H
atom_frac 0.7908376310291628 0.8120439804893069 0.1311285626585246 H
atom_frac 0.8693259376748584 0.0367975272473586 0.0914902631026280 H
atom_frac 0.7314685692499479 0.9124937974715837 0.3490909143854708 H
atom_frac 0.8010527497510221 0.8606967491984462 0.2395835827447640 H
atom_frac 0.7641045229729783 0.0761974924294009 0.1659891470216266 H
atom_frac 0.6946823651378579 0.1282046079032142 0.2749643133180086 H
atom_frac 0.7339833730310656 0.8902294951971329 0.6887173791806021 H
atom_frac 0.7654982487977405 0.9628232806294785 0.5929386179860500 H
atom_frac 0.9995940344032943 0.8062588393223963 0.5421516159003161 H
atom_frac 0.0820046157308170 0.9907631338681571 0.1497595079208267 H
atom_frac 0.0467181067319444 0.9226906747023024 0.2481288124855254 H
atom_frac 0.9023354723230380 0.1287885994776659 0.3375095178949580 H
atom_frac 0.0057107169132919 0.8336734699357393 0.4464835385060014 H
atom_frac 0.0412084777179658 0.8885184962267444 0.3446082973115097 H
atom_frac 0.8570246798630874 0.0786284645974860 0.4157881216201673 H
atom_frac 0.8201984737666804 0.0232019189938484 0.5170746444846586 H
atom_frac 0.0518567860114274 0.5001632756458747 0.3445462460191564 H
atom_frac 0.0244962050849509 0.5691549474725690 0.2453353634213116 H
atom_frac 0.9040338079122276 0.3585173664544071 0.1430264460894435 H
atom_frac 0.7507713901311346 0.5912679130874920 0.7857581352455227 H
atom_frac 0.7802038808311947 0.5191659625990042 0.8822036113225949 H
atom_frac 0.9631021970816459 0.7060608141908844 0.9644397169554465 H
atom_frac 0.0073866232081556 0.6124670418774587 0.1548150572917137 H
atom_frac 0.9712573172425250 0.6696411823034580 0.0543461815263910 H
atom_frac 0.8229000704644560 0.4659142687924529 0.9653743703751020 H
atom_frac 0.8605299777691966 0.4085245353504377 0.0652239674025026 H
atom_frac 0.9249257961001687 0.7204743729841426 0.4773161166914761 H
atom_frac 0.8643324075115257 0.6739872792626542 0.3615956801822691 H
atom_frac 0.8380619769184816 0.4568794816566213 0.4357378546029338 H
atom_frac 0.6680398424106213 0.2696450516939208 0.0088050609510475 H
atom_frac 0.7101852407662077 0.3123666981585060 0.1307881127025539 H
atom_frac 0.6304610927697212 0.5366113418302164 0.0891898651498337 H
atom_frac 0.7716316732433696 0.4140694597877754 0.3475708810102489 H
atom_frac 0.7023345890308619 0.3615806677134971 0.2381173099467517 H
atom_frac 0.7352926616129237 0.5769766916177447 0.1638719346922812 H
atom_frac 0.8046074553349312 0.6297106719319461 0.2728870654107496 H
atom_frac 0.2339224690549954 0.6113832818241393 0.3107785498448408 H
atom_frac 0.2656962357115232 0.5386471899159917 0.4066012218652375 H
atom_frac 0.4999236038064508 0.6940457849106993 0.4579169779478890 H
atom_frac 0.5845456156281016 0.5073772062832093 0.8494646992275393 H
atom_frac 0.5513877971077504 0.5754158409266666 0.7503646632400206 H
atom_frac 0.4011929220873539 0.3721684234424671 0.6620764961920145 H
atom_frac 0.5078452948905081 0.6654940418894812 0.5527295896168738 H
atom_frac 0.5441991895421907 0.6100547267623855 0.6543357204874312 H
atom_frac 0.3548484232240411 0.4235704408539931 0.5849133464626206 H
atom_frac 0.3180205011033904 0.4790401187105503 0.4834790997598902 H
atom_frac 0.5519007960034442 0.9997601486697860 0.6569197925979680 H
atom_frac 0.5246712330619515 0.9315398976924809 0.7565131992063954 H
atom_frac 0.4013839062811541 0.1425092700907982 0.8566361711884412 H
atom_frac 0.2492757727610808 0.9099988377431245 0.2140157169622512 H
atom_frac 0.2781105769977401 0.9821182443286393 0.1176336038564472 H
atom_frac 0.4629645939601728 0.7955174864781330 0.0363206195788521 H
atom_frac 0.5055392160091400 0.8883233837981876 0.8459524566113360 H
atom_frac 0.4694107290199553 0.8313639280412417 0.9463281797189396 H
atom_frac 0.3227012295562587 0.0363047325060464 0.0354298807258644 H
atom_frac 0.3602121470397676 0.0934759285285196 0.9355864762686750 H
atom_frac 0.4266876118546961 0.7818289728588397 0.5218654616233707 H
atom_frac 0.3652489815733517 0.8283662034521628 0.6371825550848413 H
atom_frac 0.3364527354173318 0.0451089692167699 0.5625100937277168 H
atom_frac 0.1687840471268557 0.2296117419523470 0.9914202216197339 H
atom_frac 0.2093551641679453 0.1881653492125893 0.8690129718604142 H
atom_frac 0.1305827396747148 0.9634195801764421 0.9085249455362429 H
atom_frac 0.2683794118211081 0.0876305747926978 0.6509054010819498 H
atom_frac 0.1989134217940531 0.1394611518642392 0.7604406062752177 H
atom_frac 0.2359713701487393 0.9240043479869160 0.8340894145795376 H
atom_frac 0.3052923445581327 0.8719518444505638 0.7250811261425126 H
atom_frac 0.2093085124064372 0.1265410159396225 0.3481097470769825 C
atom_frac 0.1905893348127846 0.0862566953213673 0.4011884606448248 C
atom_frac 0.1154023727359004 0.1106312523153079 0.4482919889193156 C
atom_frac 0.0641395374882023 0.1734322560975343 0.4298435525948392 C
atom_frac 0.9556415494598838 0.9816752063943003 0.8049122221738402 C
atom_frac 0.9754739635323585 0.0187166180441167 0.7497359770702944 C
atom_frac 0.0272079020258644 0.9803659958113825 0.6921308406646176 C
atom_frac 0.0553692395842376 0.9062098938119121 0.7011246286113035 C
atom_frac 0.0922044916882072 0.0777770429921105 0.5083717384556437 C
atom_frac 0.0282724785101820 0.1128553365462466 0.5595559037633322 C
atom_frac 0.0080508554105450 0.0817162552978914 0.6181864881733504 C
atom_frac 0.0481618495192393 0.0115366361990468 0.6305560838878748 C
atom_frac 0.1099605111284703 0.9754714135823125 0.5784424199535111 C
atom_frac 0.1317341019341924 0.0072854173347281 0.5206166375397459 C
atom_frac 0.9795703710820547 0.5277298574320567 0.7032722339470397 C
atom_frac 0.9951746251906284 0.4902212478687603 0.7588474605956962 C
atom_frac 0.0405967176629645 0.5286297399119846 0.8192483740875360 C
atom_frac 0.0623461487966850 0.6051926088131836 0.8144172082785133 C
atom_frac 0.2048164134946119 0.3856740243816290 0.1706061651270829 C
atom_frac 0.1876090239715182 0.4254030741642438 0.1167757686660593 C
atom_frac 0.1274667624127658 0.3934391902218550 0.0611147156288752 C
atom_frac 0.0883974618086185 0.3226964669915516 0.0716050444322818 C
atom_frac 0.0621696666171019 0.4953653398482913 0.8796213566884177 C
atom_frac 0.0331408665305588 0.4204138044596206 0.8863369074039229 C
atom_frac 0.0538219294373050 0.3877991052177237 0.9441690579327826 C
atom_frac 0.1065408856134482 0.4265831184476880 0.0006281581240728 C
atom_frac 0.1363632394158216 0.5012437150788713 0.9934902535926398 C
atom_frac 0.1145931219392367 0.5340668986447953 0.9361157387164527 C
atom_frac 0.0968138304298947 0.3379807920403124 0.5356544654409205 C
atom_frac 0.1313438495858748 0.3644857326258588 0.6004664618657928 C
atom_frac 0.1605476856088757 0.4409920846053837 0.6152528248394306 C
atom_frac 0.1451841153673215 0.4826259100469629 0.5591764891836066 C
atom_frac 0.3397160754830181 0.6709084187309389 0.9691136939635427 C
atom_frac 0.3162694900989038 0.6465774673638125 0.9010678985113856 C
atom_frac 0.3208902207375245 0.5681793445238201 0.8763518257597411 C
atom_frac 0.3577338120107925 0.5239058045017162 0.9254302353388796 C
atom_frac 0.2037484228082604 0.4729484631611030 0.6796372886343249 C
atom_frac 0.2348411926161730 0.5493053368154079 0.6925263917285350 C
atom_frac 0.2744093814818243 0.5792081869451736 0.7549003071274357 C
atom_frac 0.2870886681640171 0.5352818235995827 0.8092613145015476 C
atom_frac 0.2586206809990017 0.4585279026155292 0.7958559898458546 C
atom_frac 0.2183248716869386 0.4287511743378901 0.7336821714984936 C
atom_frac 0.7094069731597724 0.3720472778631746 0.6521524658623364 C
atom_frac 0.6905869286753016 0.4123652399823216 0.5989999021921620 C
atom_frac 0.6152138644972210 0.3884472134703004 0.5518134651914508 C
atom_frac 0.5638986119817273 0.3259295816205921 0.5700985214583696 C
atom_frac 0.4536566412137687 0.5197137532209766 0.1958386372974275 C
atom_frac 0.4723594234704008 0.4826878196181994 0.2513304023948209 C
atom_frac 0.5258624598521917 0.5200687355739149 0.3084664410308946 C
atom_frac 0.5557785889019087 0.5935046028173829 0.2993091511776100 C
atom_frac 0.5919769172713669 0.4215440058019838 0.4917305890226515 C
atom_frac 0.5269318900180338 0.3874234421707641 0.4409005054502090 C
atom_frac 0.5061332596717563 0.4189431111749329 0.3824285562181018 C
atom_frac 0.5471440478051689 0.4884586951003342 0.3699185767819202 C
atom_frac 0.6108253173270626 0.5231950819011217 0.4213131119990265 C
atom_frac 0.6328080974085848 0.4912135881690603 0.4791397374592777 C
atom_frac 0.4800037050302917 0.9721516276372099 0.2955852049414673 C
atom_frac 0.4956881091910147 0.0093011921685360 0.2398897685719278 C
atom_frac 0.5417919146918279 0.9704568773072425 0.1800018343611497 C
atom_frac 0.5642411180760830 0.8941353516546258 0.1854396657365172 C
atom_frac 0.7058261105644518 0.1130489728352373 0.8293053749047701 C
atom_frac 0.6889347526995164 0.0733020438043610 0.8830859889034032 C
atom_frac 0.6284060819255043 0.1051311619169226 0.9383983268460625 C
atom_frac 0.5886533249362528 0.1758344965177514 0.9278272733309195 C
atom_frac 0.5633893410053901 0.0034379803849021 0.1195554270118535 C
atom_frac 0.5347125955280347 0.0786291700955957 0.1129316681401207 C
atom_frac 0.5553772317453107 0.1111068418796464 0.0551474994594869 C
atom_frac 0.6076914312270743 0.0719334233591553 0.9987900127240580 C
atom_frac 0.6371642158012988 0.9969992546375791 0.0058146275496042 C
atom_frac 0.6154302888912824 0.9643331900148052 0.0631598133085233 C
atom_frac 0.5955849686667917 0.1595452069162278 0.4653724876355412 C
atom_frac 0.6305985647246641 0.1329721770648007 0.4007619697365143 C
atom_frac 0.6609699150860138 0.0566448983096848 0.3864682387263585 C
atom_frac 0.6458099801502256 0.0150864279859562 0.4424665932712842 C
atom_frac 0.8393866194331778 0.8296271593140433 0.0313672466563872 C
atom_frac 0.8168244571119487 0.8532072265613166 0.0996420425545139 C
atom_frac 0.8219203569076255 0.9313075900488172 0.1252376521886589 C
atom_frac 0.8577507855987460 0.9762202208157552 0.0765671824400514 C
atom_frac 0.7046133285247647 0.0249008206001662 0.3221999563126802 C
atom_frac 0.7368682926175153 0.9488352374181728 0.3091323545888400 C
atom_frac 0.7766597063823607 0.9193617770703001 0.2467124434637994 C
atom_frac 0.7882229855892077 0.9635765402102406 0.1925594572416358 C
atom_frac 0.7587570266793263 0.0401515609565024 0.2062314273601515 C
atom_frac 0.7183263495761235 0.0694425617081649 0.2684010370729979 C
atom_frac 0.7905473202760047 0.8735176289038409 0.6518394176881444 C
atom_frac 0.8093025857648397 0.9138204183415657 0.5987761383026893 C
atom_frac 0.8844484698223666 0.8894209674759993 0.5516307211669016 C
atom_frac 0.9356420016983049 0.8265526095020094 0.5700322110948549 C
atom_frac 0.0445030484240974 0.0184961569207474 0.1951498056690966 C
atom_frac 0.0246394734527442 0.9814470755438056 0.2503090963892092 C
atom_frac 0.9728099670195146 0.0197682709093883 0.3078757307009923 C
atom_frac 0.9445290215952937 0.0938758033719509 0.2988345609487980 C
atom_frac 0.9076760607605505 0.9222998379363930 0.4915703463057072 C
atom_frac 0.9716441361769695 0.8872491257235140 0.4403993391353609 C
atom_frac 0.9919400771278927 0.9184171991452103 0.3817995141003578 C
atom_frac 0.9518397093546010 0.9886017652717028 0.3694403366923921 C
atom_frac 0.8899752337192054 0.0246340153201317 0.4215231928439637 C
atom_frac 0.8681485682874381 0.9927915053029821 0.4793223911159287 C
atom_frac 0.0206224854233596 0.4722353581828714 0.2965990836877666 C
atom_frac 0.0049375360032116 0.5097646540205718 0.2410512401657670 C
atom_frac 0.9594382950812059 0.4713723285824043 0.1806760476972754 C
atom_frac 0.9376541807762279 0.3948284287937228 0.1855323536066679 C
atom_frac 0.7951491636827865 0.6143653837715918 0.8293311716494287 C
atom_frac 0.8123926758629307 0.5746138410480840 0.8831446087730300 C
atom_frac 0.8725031231842661 0.6065791275853840 0.9388288117040915 C
atom_frac 0.9115490603250365 0.6773453169568243 0.9283658069193664 C
atom_frac 0.9378059035926325 0.5046416601201715 0.1203195416999564 C
atom_frac 0.9668481524785901 0.5795820379202326 0.1135896466782498 C
atom_frac 0.9461628567440808 0.6121888275296925 0.0557553433788982 C
atom_frac 0.8934155789277154 0.5734171564580279 0.9993081885456406 C
atom_frac 0.8635394431584799 0.4987715404218563 0.0064737103644674 C
atom_frac 0.8853222904345014 0.4659551250682411 0.0638502235377629 C
atom_frac 0.9035300835591541 0.6616039004278987 0.4642669434594637 C
atom_frac 0.8689852965582431 0.6350681371815909 0.3994684136765869 C
atom_frac 0.8396215956587268 0.5585934145592545 0.3847829232702011 C
atom_frac 0.8548534525890900 0.5170180599800319 0.4409067878035414 C
atom_frac 0.6603681398173575 0.3289849867284503 0.0308657623963953 C
atom_frac 0.6837788896030900 0.3532186423945446 0.0989318719451759 C
atom_frac 0.6790713446726284 0.4315820513058243 0.1237399429569663 C
atom_frac 0.6422184690297923 0.4759420769378338 0.0747254296788995 C
atom_frac 0.7963714215285760 0.5266155987150187 0.3204326362171699 C
atom_frac 0.7652793219601719 0.4502601203847406 0.3075253480636775 C
atom_frac 0.7256628833332357 0.4204055604995675 0.2451511190505045 C
atom_frac 0.7129127612733794 0.4643908909660583 0.1908382807660232 C
atom_frac 0.7413616890845415 0.5411483350414484 0.2042762621453136 C
atom_frac 0.7817206252600284 0.5708605024084507 0.2664363438064683 C
atom_frac 0.2905384219118331 0.6278418101647887 0.3477818116860760 C
atom_frac 0.3094229169158210 0.5874739122172912 0.4008900406937599 C
atom_frac 0.3847718932814245 0.6114177587237251 0.4480980083038872 C
atom_frac 0.4359610441182013 0.6740293662170417 0.4298772923382757 C
atom_frac 0.5463056217893579 0.4802514940480266 0.8041259170452406 C
atom_frac 0.5276396817916973 0.5172409073832044 0.7486060017796562 C
atom_frac 0.4740984423632567 0.4798620913004331 0.6914845246412540 C
atom_frac 0.4441625169036454 0.4064433471549194 0.7006758981585293 C
atom_frac 0.4080619383238258 0.5783080396779212 0.5081683690491374 C
atom_frac 0.4731133153914795 0.6124360029519025 0.5589964492897578 C
atom_frac 0.4938921014892940 0.5809360442940132 0.6174803808504734 C
atom_frac 0.4528621985334452 0.5114316457442526 0.6300031710326407 C
atom_frac 0.3892121534841094 0.4766578489440366 0.5786033341308611 C
atom_frac 0.3672364512644251 0.5086365549351655 0.5207727434070080 C
atom_frac 0.5200774456651017 0.0279369955173294 0.7045129732816662 C
atom_frac 0.5044305133006971 0.9908328993569951 0.7602404603350763 C
atom_frac 0.4582770609934669 0.0296969302950885 0.8201025583912483 C
atom_frac 0.4357428940172595 0.1059868918194624 0.8146162275823486 C
atom_frac 0.2941118662263306 0.8870684698436764 0.1707324265092183 C
atom_frac 0.3111030336536160 0.9268443062464302 0.1169866698821309 C
atom_frac 0.3716062810471854 0.8949846544422398 0.0616684235349112 C
atom_frac 0.4112444173338685 0.8242336217857869 0.0722100981609657 C
atom_frac 0.4366994478356431 0.9967208818209915 0.8805512373305788 C
atom_frac 0.4653606166639364 0.9215191380886837 0.8871601992016522 C
atom_frac 0.4446952594369760 0.8890454679381605 0.9449423841037969 C
atom_frac 0.3923832145679426 0.9282114048951442 0.0013069775358261 C
atom_frac 0.3629337955350990 0.0031555459632244 0.9942975950136699 C
atom_frac 0.3846769282922011 0.0358232488797725 0.9369562264219271 C
atom_frac 0.4045049825015212 0.8406450961075294 0.5346390758058774 C
atom_frac 0.3694624271902568 0.8671942602010249 0.5992538245167224 C
atom_frac 0.3389537709207531 0.9434925092991334 0.6135238795277260 C
atom_frac 0.3539912337747565 0.9850232867968957 0.5574867333637029 C
atom_frac 0.1607644921372682 0.1705330962295193 0.9687565289935377 C
atom_frac 0.1833449793777149 0.1469837162991681 0.9004774428865688 C
atom_frac 0.1781760742915921 0.0688924863118814 0.8748437419242377 C
atom_frac 0.1422500201054148 0.0239781789304487 0.9234796646158331 C
atom_frac 0.2953280748330015 0.9752431086716699 0.6778109824432335 C
atom_frac 0.2630582661093328 0.0513018599829422 0.6908811708980664 C
atom_frac 0.2233369205255754 0.0808026617858673 0.7533285379298179 C
atom_frac 0.2118345175537754 0.0366073648422542 0.8075047846668966 C
atom_frac 0.2412707407515028 0.9600257177759777 0.7938221384441705 C
atom_frac 0.2816610730476085 0.9307185544919605 0.7316348657267113 C
atom_frac 0.1610844569131870 0.1900418588732151 0.3371857407208765 N
atom_frac 0.0853425965527848 0.2117017743395309 0.3790942636979154 N
atom_frac 0.9808513510101305 0.9090467352048606 0.8088608531500441 N
atom_frac 0.0329778298913723 0.8721884651437436 0.7546164549564836 N
atom_frac 0.0023558984467726 0.6012617916545366 0.7020351128862572 N
atom_frac 0.0432623272977395 0.6396850689015637 0.7605479949612501 N
atom_frac 0.1691975885057531 0.3155043800067930 0.1744527501701469 N
atom_frac 0.1080813812508978 0.2854114486432735 0.1234114931918242 N
atom_frac 0.0885477760339839 0.3805887757510646 0.4843082245173490 N
atom_frac 0.1122869200467136 0.4549561493275861 0.4972764065350859 N
atom_frac 0.3706491183700251 0.6245704638889151 0.0132247001210501 N
atom_frac 0.3817756159149963 0.5495699135913981 0.9898273014194815 N
atom_frac 0.6611075465878712 0.3088236489348050 0.6629517675487976 N
atom_frac 0.5852750189058682 0.2875267994872672 0.6208622831670568 N
atom_frac 0.4812496317878681 0.5915621741345163 0.1915239319874757 N
atom_frac 0.5340752206814015 0.6276903279831956 0.2456066451030523 N
atom_frac 0.5034167910763756 0.8987894637117506 0.2974425079109507 N
atom_frac 0.5451922582662974 0.8600040821053202 0.2395068612471007 N
atom_frac 0.6693570419111194 0.1830676337425317 0.8252813377742925 N
atom_frac 0.6079866733684866 0.2130616276059030 0.8760579202459765 N
atom_frac 0.5878679671746878 0.1171910388827655 0.5167757243636117 N
atom_frac 0.6124183648849948 0.0428285556935819 0.5041500555506248 N
atom_frac 0.8700604355813508 0.8764710066583137 0.9878060961810677 N
atom_frac 0.8812307082380780 0.9512200988917245 0.0119572584907601 N
atom_frac 0.8386871929071376 0.8099556840677594 0.6627168436981350 N
atom_frac 0.9143830284388057 0.7882579932207179 0.6207548881804997 N
atom_frac 0.0191771751433905 0.0910883459445557 0.1911672932554254 N
atom_frac 0.9669154868767647 0.1278971566678280 0.2453483365944322 N
atom_frac 0.9977831641418998 0.3987218391275248 0.2978617581221386 N
atom_frac 0.9567521552613768 0.3603326439174239 0.2393949785384919 N
atom_frac 0.8307063949321858 0.6845686032845394 0.8255219960843618 N
atom_frac 0.8918226417838966 0.7146573362014621 0.8765789965632678 N
atom_frac 0.9116375168229137 0.6190695306711833 0.5156751019164717 N
atom_frac 0.8877526518918443 0.5447282987667849 0.5027937462490755 N
atom_frac 0.6293805903627072 0.3753804226898509 0.9868262207092470 N
atom_frac 0.6181955588707807 0.4503570852847077 0.0103105491151538 N
atom_frac 0.3387167182419403 0.6911492522402939 0.3370428532842595 N
atom_frac 0.4145187818735535 0.7124786583824591 0.3791594184056352 N
atom_frac 0.5186553092692207 0.4084280977041175 0.8084803920716155 N
atom_frac 0.4658318726392280 0.3722935949552950 0.7544049470827119 N
atom_frac 0.4965921230890160 0.1012766142208079 0.7026105113175305 N
atom_frac 0.4547719813159217 0.1400721011064476 0.7605174248067570 N
atom_frac 0.3304663132161565 0.8170076937172298 0.1747334979498731 N
atom_frac 0.3918261149689072 0.7869893512208680 0.1239539456764902 N
atom_frac 0.4120761877340939 0.8829579449044189 0.4831991682933534 N
atom_frac 0.3873814093698087 0.9572880296929683 0.4957991420972974 N
atom_frac 0.1299943390752744 0.1236864842355132 0.0122799125571902 N
atom_frac 0.1187425377230937 0.0489590155053889 0.9880908987710415 N
