#=======================================================
# FHI-aims file: ./geometry.in
# Created using the Atomic Simulation Environment (ASE)
# Wed Feb  9 14:46:31 2022
#=======================================================
lattice_vector 11.9786355300000000 -0.0950360400000000 -2.7718079699999998 
lattice_vector -5.8471109400000003 15.2851631500000007 -7.6505882300000003 
lattice_vector -0.0363057500000000 -0.0120917700000000 18.0597273700000009 
atom_frac 1.0000024199999999 0.4999975799999999 -0.0000020500000000 Cd
atom_frac 0.0000059200000000 1.0000028599999999 1.0000017900000002 Cd
atom_frac 0.4999946900000000 0.4999843800000000 0.4999996000000000 Cd
atom_frac 0.9999891099999999 0.9999953900000000 0.5000012800000000 Cd
atom_frac 0.6101322199999999 0.5035947299999999 0.7847104000000001 H
atom_frac 0.2334809400000000 0.1394830200000000 0.5157530000000000 H
atom_frac 0.7265166499999998 0.9158260799999999 1.0007987200000001 H
atom_frac 0.0825826200000000 0.3819818699999999 0.0451451200000000 H
atom_frac 0.7757126300000000 0.6178713299999999 0.2264999700000000 H
atom_frac 0.3670627900000000 0.9176910400000000 0.1394275900000002 H
atom_frac 0.6166863700000000 0.2180895600000000 0.3443520500000001 H
atom_frac 0.2279370899999999 0.8606613599999998 0.7783970000000000 H
atom_frac 0.1612539199999999 0.2632516100000000 0.3688422900000000 H
atom_frac 0.0726748600000000 0.0842031400000000 0.3329550500000000 H
atom_frac 0.4594231599999999 0.6524155599999999 0.8799486800000001 H
atom_frac 1.0113324900000000 0.7513981700000001 0.0842021800000001 H
atom_frac 0.0969350200000000 0.0290317700000000 0.1892028900000000 H
atom_frac 0.8979375900000000 0.1055626900000000 0.7365679000000001 H
atom_frac 0.2603646000000000 0.3328624500000000 0.2484762500000000 H
atom_frac 0.7925586900000000 0.6306602999999998 0.8934690100000000 H
atom_frac 0.2992067700000000 0.2516792700000000 0.4064034200000001 H
atom_frac 0.9073920199999999 0.8109764999999999 0.8398675799999999 H
atom_frac 0.5799330100000000 0.1201032000000000 0.7722759800000000 H
atom_frac 0.4200675500000000 0.8798900799999999 0.2276982500000000 H
atom_frac 0.8387191500000000 0.7367234900000000 0.6311616700000001 H
atom_frac -0.0113253800000000 0.2485871300000000 0.9157722300000000 H
atom_frac 0.4870383000000000 0.3487606000000000 0.7295140300000001 H
atom_frac 0.1926770100000000 0.7724014999999999 0.6521601500000000 H
atom_frac 0.2822128300000000 0.5158049199999999 0.3760638300000000 H
atom_frac 0.8422197300000001 0.3916722400000000 0.6182456600000001 H
atom_frac 0.8137147199999999 0.9604831000000000 0.3212364100000001 H
atom_frac 0.8253691099999999 0.2152374300000000 0.7190823300000000 H
atom_frac 0.5494904700000000 0.7736028899999999 0.3916210500000001 H
atom_frac 0.9318907700000000 0.8397837300000000 0.0288215900000000 H
atom_frac 0.3832943999999999 0.7819080299999999 0.6556270300000000 H
atom_frac 0.5405655000000000 0.3475838400000000 0.1200519700000000 H
atom_frac 0.8933492300000000 0.5928569500000000 0.8449695400000001 H
atom_frac 0.0475192600000000 0.1550577800000000 0.7486105300000001 H
atom_frac 0.7006224900000000 0.6631549400000000 0.6181727300000001 H
atom_frac 0.8537962099999998 0.3606759999999999 0.0396378500000000 H
atom_frac 0.5071944600000000 0.3210703599999999 0.3606881900000000 H
atom_frac 0.9174363999999999 0.6180165299999999 0.9548398600000001 H
atom_frac 0.1020830399999999 0.8944140699999998 0.2634246900000001 H
atom_frac 0.1746342600000000 0.7847563199999998 0.2809180600000001 H
atom_frac 0.5503263900000001 0.7786252000000000 0.9178822500000001 H
atom_frac 0.7262381100000000 -0.0005908900000000 0.9148279800000001 H
atom_frac 0.8618465600000000 0.6193408799999999 0.3489758200000000 H
atom_frac 0.5129581500000000 0.6512484500000000 0.2704984699999999 H
atom_frac 0.0926300100000000 0.1890098000000000 0.1601318700000000 H
atom_frac 0.0370088799999999 0.9547488899999999 0.3367837700000000 H
atom_frac 0.2074680700000000 0.3693396800000000 0.1065085500000000 H
atom_frac 0.9030868900000000 0.9710058000000000 0.8108013600000000 H
atom_frac 0.8936633899999999 0.7189994700000000 0.5039448900000000 H
atom_frac 0.2242614800000000 0.3821161699999999 0.7734814000000000 H
atom_frac 0.1066679900000000 0.4071233299999999 0.1550106400000000 H
atom_frac 0.1886325800000000 0.9146710000000000 0.9155071700000000 H
atom_frac 0.7665159999999999 0.8604804499999998 0.4842212000000001 H
atom_frac 0.2720353500000000 0.6557288299999999 0.8737956400000000 H
atom_frac 0.9273305999999998 0.9157933099999999 0.6670364700000001 H
atom_frac 0.7007730700000000 0.7483110800000001 0.5936042100000001 H
atom_frac 0.6329416500000000 0.0823131100000000 0.8605645400000000 H
atom_frac 0.0942040800000000 0.3763635600000000 0.8603234400000002 H
atom_frac 0.9057813299999998 0.6236249699999998 0.1396612100000000 H
atom_frac 0.0681135400000000 0.1602188100000000 0.9711793700000001 H
atom_frac 0.8113696800000000 0.0853585600000000 0.0845064200000000 H
atom_frac 0.2735258600000000 0.0841868000000000 -0.0007931000000000 H
atom_frac 0.4928498799999999 0.6789448499999999 0.6392746100000001 H
atom_frac 0.6011530100000000 0.8739175199999999 0.2182549500000001 H
atom_frac 0.7178791599999998 0.4842645800000000 0.6238808300000002 H
atom_frac 0.3898795600000000 0.4964105500000000 0.2152884300000001 H
atom_frac 0.9524902699999999 0.8449329000000000 0.2513667299999999 H
atom_frac 0.7720699700000000 0.1393503200000000 0.2216171300000000 H
atom_frac 0.3988513000000000 0.1261027000000000 0.7817541099999999 H
atom_frac 0.2737639299999999 1.0006068299999997 0.0851877800000001 H
atom_frac 0.7576810499999999 0.2706083599999999 0.6195500800000001 H
atom_frac 0.4505142400000000 0.2263707900000000 0.6083554000000000 H
atom_frac 0.1381386300000000 0.3806570499999999 0.6510173299999999 H
atom_frac 0.2423469299999999 0.7294082199999999 0.3804654499999999 H
atom_frac 0.9630033999999998 0.0452412400000000 0.6631967900000000 H
atom_frac 0.4496888600000000 0.2213949800000000 0.0821106300000000 H
atom_frac 0.7279389399999999 0.3442572500000000 0.1261842400000000 H
atom_frac 0.8073423199999998 0.2276146500000000 0.3478496400000000 H
atom_frac 0.1862890100000000 0.0395256500000000 0.6787725800000001 H
atom_frac 0.1461897800000000 0.6393166100000000 0.9603464000000000 H
atom_frac 0.1063265500000000 0.2809983800000000 0.4960426700000001 H
atom_frac 0.1577788599999999 0.6083559699999999 0.3817447000000000 H
atom_frac 0.7396443999999999 0.6671393299999999 0.7515177900000000 H
atom_frac 0.2993308099999999 0.3368058400000000 0.3817936900000000 H
atom_frac 0.3653583999999999 0.6785041599999999 0.2091299300000000 C
atom_frac 0.7429832199999999 0.6996232200000000 0.5900269600000001 C
atom_frac 0.8199159499999999 0.3143863400000000 0.8773219200000000 C
atom_frac 0.1006255300000001 0.8514564800000001 0.6252537600000001 C
atom_frac 0.7256661500000000 0.8593583100000000 0.9437475600000002 C
atom_frac 0.6871257100000000 0.5305984000000000 0.3216318600000000 C
atom_frac 0.3721875800000000 0.2185843800000000 0.1022814100000000 C
atom_frac 0.1506658699999999 0.8009281099999997 0.3391323300000000 C
atom_frac 0.3949588900000000 0.4862119900000000 0.6378731000000000 C
atom_frac 0.1927968200000000 0.7632251300000000 0.5312541400000002 C
atom_frac 0.1531946899999999 0.8836089099999999 0.7812035800000000 C
atom_frac 0.4948330799999999 0.4370101199999999 0.3143919400000000 C
atom_frac 0.9713948899999999 0.1451787700000000 0.9463766800000000 C
atom_frac 0.0119185500000000 0.0848734000000000 0.2791963100000001 C
atom_frac 0.6269242100000000 0.7077547199999999 0.8249623400000001 C
atom_frac 0.8471671799999999 0.5896035099999999 0.8899557499999999 C
atom_frac 0.6615751499999999 0.4685102099999999 0.2318819000000000 C
atom_frac 0.8437106199999999 0.2091373000000000 0.5307987400000000 C
atom_frac 0.9567725499999999 0.1097853800000000 0.6996783000000000 C
atom_frac 0.2743661900000000 0.1406480400000000 0.0562583300000000 C
atom_frac 0.7928882400000000 0.6054845900000000 0.3752792200000001 C
atom_frac 0.2674562599999999 0.2790489499999999 0.1941468900000000 C
atom_frac 0.8468162900000000 0.1164086500000000 0.2188043000000000 C
atom_frac 0.2076809599999999 0.4408633699999999 0.8125670000000002 C
atom_frac 0.2604795400000000 0.5203304000000000 0.8158322099999999 C
atom_frac 0.9750354400000000 0.9462318699999999 0.8010900100000000 C
atom_frac 0.7510285700000000 0.2261013200000000 0.8513990100000000 C
atom_frac 0.7669502100000000 0.3719366299999999 0.5594122300000000 C
atom_frac 0.9880916099999999 0.9151399200000001 0.7208051400000001 C
atom_frac 0.2739691800000000 0.3596298000000000 0.5028610500000000 C
atom_frac 0.1660470100000000 0.5837676500000000 0.9177831900000000 C
atom_frac 0.7573027999999999 0.3620110800000000 0.8482083200000001 C
atom_frac 0.2596199099999999 0.7043425099999999 0.5200925000000000 C
atom_frac 0.1662928300000000 0.7957655400000000 0.6064819800000001 C
atom_frac 0.8024819099999999 0.1751716700000000 0.8827724600000000 C
atom_frac 0.0576256300000000 0.8773552700000000 0.5628601700000001 C
atom_frac 0.7403842700000000 0.2956607800000001 0.4798974000000000 C
atom_frac 0.5245543999999999 0.6254171899999998 0.7739592000000001 C
atom_frac 0.5825413000000000 0.3340971600000000 0.4163086300000001 C
atom_frac 0.8668901599999999 0.0846570700000000 0.1409145600000000 C
atom_frac 0.0805346400000000 0.8828035700000000 0.7075850800000001 C
atom_frac 0.4174956399999999 0.6659166300000000 0.5836566700000001 C
atom_frac 0.3703555300000000 0.8108406200000001 0.2042923300000001 C
atom_frac 0.7923030800000000 0.5591267700000000 0.1874199000000000 C
atom_frac 0.7711832100000000 0.4968487099999999 0.8564933000000000 C
atom_frac 0.1562924200000000 0.7908657800000000 0.4692029300000001 C
atom_frac 0.3128651100000000 0.4693976100000000 0.6783627800000002 C
atom_frac 0.3384221700000000 0.5314861999999999 0.7681159000000000 C
atom_frac 0.7632791100000000 0.4074013899999999 0.1297201400000000 C
atom_frac 0.0432337399999999 0.8902023299999999 0.3003071200000000 C
atom_frac 0.3950142999999999 0.1872907700000000 0.6280388300000002 C
atom_frac 0.4754530499999999 0.3745821400000000 0.2260471400000000 C
atom_frac 0.6278352699999998 0.7814251999999999 0.8977215299999999 C
atom_frac 0.0249782600000000 0.0537960500000000 0.1989130000000000 C
atom_frac 0.2693755799999999 0.8975532499999999 0.1164007200000000 C
atom_frac 0.2489729300000000 0.7738924199999999 0.1485842900000000 C
atom_frac 0.8072049700000000 0.2367791000000000 0.4687486000000001 C
atom_frac 0.1884611899999999 0.3392459799999999 0.5381252200000000 C
atom_frac 0.5705308500000000 0.2318092200000000 0.7631872300000000 C
atom_frac 0.6050383499999998 0.5137919600000000 0.3621289700000000 C
atom_frac 0.4401262399999998 0.6066989399999998 0.8108612500000001 C
atom_frac 0.8628830400000000 0.5625133800000000 0.1381392500000000 C
atom_frac 0.4176179600000001 0.6249383000000001 0.2303703700000001 C
atom_frac 0.5551843799999999 0.8159476599999999 0.2957204700000000 C
atom_frac 0.1371039300000000 0.4374774200000000 0.8618495300000000 C
atom_frac 0.3555990600000000 0.7222374900000000 0.5924435900000001 C
atom_frac 0.3003267299999999 0.5754389000000000 0.4372155300000000 C
atom_frac 0.6346400799999999 0.3215010300000000 0.7908742400000000 C
atom_frac 0.8339383800000000 0.4162221000000000 0.0822062700000001 C
atom_frac 0.8115266899999999 0.6607536999999999 0.4618687000000000 C
atom_frac 0.0727473899999999 0.8057246099999997 0.0848137100000000 C
atom_frac 0.7249052199999999 0.8619860800000000 0.4246164600000001 C
atom_frac 0.3497089200000000 0.5384191100000000 0.1991013500000000 C
atom_frac 0.7260141300000000 0.6403682799999999 0.4971305200000000 C
atom_frac 0.2485721000000000 0.0820878400000000 0.6657827500000001 C
atom_frac 0.1528507400000000 0.4103915300000000 0.1100290300000000 C
atom_frac 0.1975220200000000 0.8248224400000000 0.1172106700000000 C
atom_frac 0.6502965100000000 0.4615853200000000 0.8009005400000000 C
atom_frac 0.9272564599999999 0.1942678800000000 0.9151686800000001 C
atom_frac 0.8493344200000000 0.1990677000000000 0.6608669000000001 C
atom_frac 0.3730932100000000 0.2922470599999999 0.1750437400000000 C
atom_frac 0.7306284900000000 0.1024474100000000 0.8835920699999998 C
atom_frac 0.4448137100000000 0.1840545200000000 0.7042746700000000 C
atom_frac 0.5051712800000000 0.5629811500000000 0.6856144500000000 C
atom_frac 0.8257653200000000 0.8012760299999999 0.8549386000000001 C
atom_frac 0.2367036300000000 0.5925881500000000 0.8702679900000000 C
atom_frac 0.7395110200000000 0.4796621599999999 0.1841592900000001 C
atom_frac 0.6049859200000000 0.8126950999999999 0.3719465300000000 C
atom_frac 0.2426968999999999 0.6379904399999999 0.1517922700000000 C
atom_frac 0.5598729200000001 0.3933005300000000 0.1891403900000000 C
atom_frac 0.2071004899999999 0.3945139400000000 0.6247162200000002 C
atom_frac 0.2288246400000000 0.5031516800000000 0.1435033000000000 C
atom_frac 0.6444159099999999 0.2777639000000000 0.4075388600000000 C
atom_frac 0.5823807800000000 0.3750691100000000 0.7696375000000000 C
atom_frac 0.4294686099999999 0.7681942600000000 0.2368090500000001 C
atom_frac 0.7824481499999999 0.0564332600000000 0.9154902800000000 C
atom_frac 0.1742614500000000 0.1987186600000000 0.1450683400000000 C
atom_frac 0.2569917299999999 0.3003636399999999 0.4099694500000000 C
atom_frac 0.9423816399999999 0.1226418900000000 0.4371361700000000 C
atom_frac 0.1800843000000000 0.6856103600000000 0.1226695900000001 C
atom_frac 0.6296450200000000 0.1891553600000000 0.7956919099999999 C
atom_frac 0.8127791900000000 0.2304106200000000 0.6056637600000000 C
atom_frac 0.0286086200000000 0.8548225000000000 0.0536202100000001 C
atom_frac 0.1331194699999999 0.9153688699999999 0.8590934600000001 C
atom_frac 0.2330663199999999 0.6280838399999997 0.4405653500000000 C
atom_frac 0.8337175500000000 0.2042437100000000 0.3935235600000000 C
atom_frac 0.1872328799999999 0.7695946299999998 0.3943404100000000 C
atom_frac 0.0854876200000000 0.8565867200000000 0.3595309200000000 C
atom_frac 0.9194764699999998 0.1172106800000000 0.2924207300000000 C
atom_frac 0.7325617500000000 0.7209485100000000 0.8058577400000000 C
atom_frac 0.0910170800000000 0.8482156400000000 0.4860592300000001 C
atom_frac 0.9089813100000000 0.1517845300000000 0.5139366300000001 C
atom_frac 0.2750938999999999 0.1379963300000000 0.5753690100000000 C
atom_frac 0.6331814000000000 0.8704023700000000 0.2778906000000000 C
atom_frac 0.7514270199999999 0.9179190099999999 0.3342214500000000 C
atom_frac 0.2175554000000000 0.9435752999999999 0.0845154000000000 C
atom_frac 0.9145044199999999 0.1434048200000000 0.6404628600000000 C
atom_frac 0.8993838999999999 0.1485545300000000 0.3747488500000001 C
atom_frac 0.3668173300000000 0.1296086900000000 0.7221136700000002 C
atom_frac 0.6997288200000000 0.4246030700000000 0.5627441200000000 C
atom_frac 0.0980178700000000 0.9229820700000001 0.0518672000000001 N
atom_frac 0.8245476099999998 0.8713178499999997 0.9231168400000000 N
atom_frac 0.9019861099999998 0.0770275400000000 0.9481417299999999 N
atom_frac 0.9405910099999999 0.1196200400000000 0.5680401400000000 N
atom_frac 0.1754876800000000 0.1286778400000000 0.0768935200000000 N
atom_frac 0.2024189300000000 0.0858597600000000 0.5932282800000002 N
atom_frac 0.6275513600000000 0.5679293300000000 0.4484538000000001 N
atom_frac 0.6090950099999999 0.4067094700000000 0.4926741200000000 N
atom_frac 0.3909645999999999 0.5933232799999999 0.5072807600000001 N
atom_frac 0.7975788299999998 0.9141352000000000 0.4067686800000001 N
atom_frac 0.0461373600000001 0.9479208500000001 0.8710654900000002 N
atom_frac 0.3724367000000000 0.4320723299999999 0.5515380200000001 N
atom_frac 0.8210662499999999 0.4482649200000000 0.8803397700000001 N
atom_frac 0.1163882400000000 0.5074548400000000 0.9140137300000001 N
atom_frac 0.9538788700000000 0.0521129200000000 0.1289404899999999 N
atom_frac 0.1789374500000000 0.5517357899999999 0.1196604800000001 N
atom_frac 0.0594020000000000 0.8803769099999998 0.4319531100000000 N
atom_frac 0.8836038899999999 0.4925363600000000 0.0859795400000000 N
atom_frac 0.0681275400000000 0.6478179500000000 0.0728242600000001 O
atom_frac 0.9955764499999999 0.9272320099999999 0.5749710900000000 O
atom_frac 0.0044133900000000 0.0727625800000000 0.4250220100000001 O
atom_frac 0.9318735900000000 0.3521762299999999 0.9271658400000000 O
atom_frac 0.4206866699999999 0.4249598499999999 0.3521398100000001 O
atom_frac 0.5793337700000000 0.5750101100000000 0.6478637000000002 O
