#=======================================================
# FHI-aims file: ./geometry.in
# Created using the Atomic Simulation Environment (ASE)
# Fri Jan 14 15:06:22 2022
#=======================================================
lattice_vector 6.8751655339999997 -0.0000002290000000 -0.0000065530000000 
lattice_vector -0.0000002290000000 6.8751945179999998 0.0000023250000000 
lattice_vector -0.0000155350000000 0.0000055170000000 16.1396236699999989 
atom_frac 0.5000001790846724 0.5000002147218865 0.2499991447446632 Cu
atom_frac 0.4999998543691503 0.4999998134954637 0.7500008898286480 Cu
atom_frac 0.4999995975570215 0.0000000166469363 0.0000088773133911 Ni
atom_frac 0.9999996919146668 0.4999999974617140 0.4999911399729697 Ni
atom_frac 0.4999990230939063 0.1848002958211623 0.3867582649052537 H
atom_frac 0.5000004986015725 0.8151970051293420 0.3867581740937993 H
atom_frac 0.4999995348453438 0.1848059320991028 0.6132387625134256 H
atom_frac 0.8152068260907939 0.4999988804517984 0.1132488722739211 H
atom_frac 0.8152027558470890 0.4999997142568375 0.8867538966306227 H
atom_frac 0.1847961163908920 0.5000011477631716 0.8867542602662367 H
atom_frac 0.1847943685942610 0.5000003139574360 0.1132498555002996 H
atom_frac 0.4999995558423790 0.8151968233900323 0.6132386717022199 H
atom_frac 0.5000014753207864 0.1041641931193951 0.1857882869909488 C
atom_frac 0.5000000471806915 0.8958348848717252 0.1857887925390642 C
atom_frac 0.4999999862926784 0.1041636888343689 0.8142199163383167 C
atom_frac 0.8958351570604605 0.5000001763693049 0.3142238512868260 C
atom_frac 0.8958359965945702 0.5000013327281607 0.6857678304162178 C
atom_frac 0.1041648763752079 0.5000013063588186 0.6857681285755390 C
atom_frac 0.1041654913501304 0.5000001500005098 0.3142235298535993 C
atom_frac 0.5000000126617153 0.8958372895958464 0.8142198022934721 C
atom_frac 0.5000003457701965 0.1007852641833722 0.3296522366916221 C
atom_frac 0.5000003723642124 0.8992135829209646 0.3296521216737175 C
atom_frac 0.4999996610854041 0.1007864452978851 0.6703460541201877 C
atom_frac 0.8992151142294701 0.4999988374231989 0.1703574250724387 C
atom_frac 0.8992151494329120 0.4999997628823395 0.8296447924586231 C
atom_frac 0.1007849192299446 0.5000011907921690 0.8296450878734021 C
atom_frac 0.1007863385369419 0.5000002653330782 0.1703577204878073 C
atom_frac 0.4999996876794697 0.8992162185397774 0.6703459391020772 C
atom_frac 0.4999998153435286 0.2259004595445689 0.0930624394961654 S
atom_frac 0.4999998336029492 0.7741002217669791 0.0930623605250318 S
atom_frac 0.5000001998883334 0.2258896249068415 0.9069544030643399 S
atom_frac 0.7740957523298064 0.5000000979080782 0.4069477730362223 S
atom_frac 0.7741048998692436 0.4999999485835644 0.5930338963231563 S
atom_frac 0.2258940995103771 0.4999999303233623 0.5930342933320815 S
atom_frac 0.2259053151170036 0.5000000796485509 0.4069481700534183 S
atom_frac 0.5000002181484788 0.7741112046937815 0.9069543240900657 S
atom_frac 0.5000001869525121 0.2022326333005324 0.2578704988051541 N
atom_frac 0.5000002067885276 0.7977663290062794 0.2578704130153113 N
atom_frac 0.4999998266719530 0.2022235176784761 0.7421327195251237 N
atom_frac 0.7977689917437800 0.4999987764430005 0.2421391071557153 N
atom_frac 0.7977788841143294 0.5000012716137406 0.7578574516627510 N
atom_frac 0.2022208601300051 0.5000012517765029 0.7578578294477936 N
atom_frac 0.2022313309055761 0.5000002111107450 0.2421394849488080 N
atom_frac 0.4999998465086434 0.7977775764444534 0.7421326337323533 N
