#=======================================================
# FHI-aims file: ./geometry.in
# Created using the Atomic Simulation Environment (ASE)
# Wed Feb  9 14:46:27 2022
#=======================================================
lattice_vector 4.4651567200000004 -0.2552750500000000 -0.0067069800000000 
lattice_vector -2.1761416100000002 9.0860658700000005 -0.1074130800000000 
lattice_vector 0.0257330500000000 -0.0234890000000000 14.8940834899999999 
atom_frac 0.0000245300000000 0.4999948500000000 0.4999783000000000 Mn
    initial_moment         4.000000
atom_frac 1.0000076600000001 1.0000045400000002 0.9999789100000002 Mn
    initial_moment         4.000000
atom_frac 0.5000053000000000 -0.0000103100000000 0.4999580800000001 Cu
    initial_moment        -1.000000
atom_frac 0.4999967500000001 0.4999977300000001 -0.0000253000000000 Cu
    initial_moment         1.000000
atom_frac 1.0267420700000003 0.7149421500000003 0.6806181500000001 H
atom_frac -0.0233956899999999 0.7829397100000001 0.1866532800000000 H
atom_frac -0.0267529100000000 0.2850488300000000 0.3193495800000000 H
atom_frac 1.0233996100000000 0.2170559200000000 0.8132990100000000 H
atom_frac 0.8488425900000000 0.7929052300000002 0.8340849100000000 H
atom_frac 0.1568768000000001 0.7050505100000001 0.3388484000000000 H
atom_frac 0.1511467400000000 0.2070905300000001 0.1658771400000000 H
atom_frac 0.8431265300000000 0.2949383900000001 0.6611027499999999 H
atom_frac 0.3212302000000000 0.0357421300000000 0.6923098100000001 H
atom_frac 0.6792813500000000 0.4605118300000002 0.1918492100000000 H
atom_frac 0.6787546600000000 0.9642491200000001 0.3076451300000000 H
atom_frac 0.3207280900000000 0.5394871400000001 0.8080974500000000 H
atom_frac 0.7697555000000001 0.8421417300000003 0.6104142800000000 C
atom_frac 0.2307149400000001 0.6549112800000001 0.1142561800000000 C
atom_frac 0.2302371300000000 0.1578548000000000 0.3895472000000000 C
atom_frac 0.7692911000000000 0.3450882400000000 0.8856939500000000 C
atom_frac 0.8905795800000001 0.7945887100000001 0.6875621200000002 C
atom_frac 0.1119623000000001 0.7029877800000001 0.1923551500000000 C
atom_frac 0.1094209300000000 0.2054069300000000 0.3123992700000000 C
atom_frac 0.8880452500000000 0.2970090000000000 0.8075961500000000 C
atom_frac 0.7750438200000002 0.8281490400000001 0.7702406800000000 C
atom_frac 0.2285147500000000 0.6692594400000001 0.2742187900000000 C
atom_frac 0.2249461900000000 0.1718461600000000 0.2297200200000000 C
atom_frac 0.7714923900000000 0.3307345900000001 0.7257314600000000 C
atom_frac 0.5595116300000001 0.9084530300000002 0.7735414700000001 C
atom_frac 0.4433510500000000 0.5884876900000000 0.2755395900000001 C
atom_frac 0.4404769700000001 0.0915424900000000 0.2264210700000000 C
atom_frac 0.5566612600000000 0.4115081300000001 0.7244096300000000 C
atom_frac 0.4526092600000000 0.9539440799999999 0.6934586400000001 C
atom_frac 0.5489646400000001 0.5427268800000001 0.1946342200000000 C
atom_frac 0.5473660699999999 0.0460435900000000 0.3065015100000000 C
atom_frac 0.4510454800000000 0.4572722600000000 0.8053140100000001 C
atom_frac 0.8554058400000000 0.8113175500000002 0.5165297800000000 C
atom_frac 0.1439072800000000 0.6860364800000001 0.0211819100000000 C
atom_frac 0.1445671100000000 0.1886588800000001 0.4834272400000000 C
atom_frac 0.8560990500000001 0.3139660700000000 0.9787683500000000 C
atom_frac 0.4613082900000001 0.9519024800000002 0.8627633000000000 C
atom_frac 0.5412679900000000 0.5441458300000002 0.3637038800000000 C
atom_frac 0.5386894500000000 0.0480980400000000 0.1371993200000000 C
atom_frac 0.4587303700000001 0.4558443900000001 0.6362465300000000 C
atom_frac 0.5670795000000000 0.9223916400000001 0.6143407300000000 N
atom_frac 0.4320539400000001 0.5741034600000001 0.1164741400000000 N
atom_frac 0.4329061499999999 0.0775939300000000 0.3856208600000000 N
atom_frac 0.5679533900000000 0.4258968500000001 0.8834747900000001 N
atom_frac 0.7523646100000000 0.8763292200000002 0.4546510100000001 O
atom_frac 0.2571556800000001 0.6250166500000001 0.9577124000000000 O
atom_frac 0.2476671400000001 0.1236646700000000 0.5453040300000002 O
atom_frac 0.7428351800000002 0.3749783400000001 0.0422379400000000 O
atom_frac 0.0304144700000001 0.7296632800000002 0.5022937300000000 O
atom_frac 0.9624189299999999 0.7640057800000001 0.0093478000000000 O
atom_frac 0.9696110200000000 0.2703386800000000 0.4976716500000000 O
atom_frac 0.0375870600000000 0.2359960500000000 0.9906040800000000 O
atom_frac 0.2553137000000000 1.0207854199999999 0.8670693300000000 O
atom_frac 0.7471359000000001 0.4751419500000001 0.3666835900000001 O
atom_frac 0.7446829300000000 -0.0207852800000000 0.1328927100000000 O
atom_frac 0.2528723200000000 0.5248549200000000 0.6332723600000000 O
atom_frac 0.6025118699999998 0.9177661400000000 0.9289915300000000 O
atom_frac 0.3992993700000000 0.5774477700000002 0.4305697500000000 O
atom_frac 0.3974812900000000 0.0822416800000000 0.0709744300000000 O
atom_frac 0.6007084700000000 0.4225612500000001 0.5693774300000000 O
