#=======================================================
# FHI-aims file: ./geometry.in
# Created using the Atomic Simulation Environment (ASE)
# Wed Feb  9 14:46:32 2022
#=======================================================
lattice_vector 9.4721329000000001 -0.0000090600000000 0.0000195100000000 
lattice_vector 0.0000117800000000 10.3995030800000006 -0.7791491900000000 
lattice_vector -0.0000199400000000 0.3565479300000000 12.3353325700000003 
atom_frac 0.3605287600000000 0.7043276899999998 0.3313977000000000 Cd
atom_frac 0.8605284700000000 0.2956725500000000 0.1686012900000000 Cd
atom_frac 0.6394711900000000 0.2956722700000000 0.6686017600000000 Cd
atom_frac 0.1394716800000000 0.7043275800000000 0.8313983100000000 Cd
atom_frac 0.5546691000000000 0.4948012600000000 0.1469340700000000 H
atom_frac 0.0546690500000000 0.5051990299999999 0.3530665100000000 H
atom_frac 0.4453314300000000 0.5051988700000000 0.8530659399999999 H
atom_frac 0.9453309900000000 0.4948001500000000 0.6469335599999999 H
atom_frac 0.7438656599999999 0.8392889300000000 0.3391210800000000 H
atom_frac 0.2438660600000000 0.1607104200000000 0.1608790300000000 H
atom_frac 0.2561345100000000 0.1607110000000000 0.6608791900000001 H
atom_frac 0.7561343300000000 0.8392893899999999 0.8391211400000002 H
atom_frac 0.7762297600000000 0.1032274900000000 0.3925893100000000 H
atom_frac 0.2762295100000000 0.8967713800000000 0.1074104700000000 H
atom_frac 0.2237704100000000 0.8967723399999999 0.6074104299999998 H
atom_frac 0.7237706100000000 0.1032282000000000 0.8925895300000000 H
atom_frac 0.0128023100000000 0.8584685899999999 0.3774646900000000 H
atom_frac 0.5128028900000000 0.1415314400000000 0.1225356300000000 H
atom_frac 0.9871977300000000 0.1415314500000000 0.6225353900000000 H
atom_frac 0.4871974600000000 0.8584686700000003 0.8774644000000001 H
atom_frac 0.0021593200000000 0.1312880900000000 0.4072566300000000 H
atom_frac 0.5021589500000000 0.8687117300000001 0.0927441500000000 H
atom_frac 0.9978409400000000 0.8687119499999999 0.5927433500000000 H
atom_frac 0.4978406800000000 0.1312885500000000 0.9072561500000000 H
atom_frac 0.2525871500000000 0.2084058000000000 0.4063012300000000 H
atom_frac 0.7525873199999999 0.7915936600000000 0.0936989000000000 H
atom_frac 0.7474128200000000 0.7915940599999999 0.5936988100000000 H
atom_frac 0.2474132100000000 0.2084064000000000 0.9063007199999998 H
atom_frac 0.5250056699999999 0.1920149000000000 0.4205404600000000 H
atom_frac 0.0250055200000000 0.8079848499999999 0.0794599000000000 H
atom_frac 0.4749943699999999 0.8079851300000001 0.5794595900000000 H
atom_frac 0.9749946499999999 0.1920152500000000 0.9205401700000000 H
atom_frac 0.5936840300000000 0.4938296500000000 0.2298671700000000 C
atom_frac 0.0936844500000000 0.5061694000000000 0.2701334900000000 C
atom_frac 0.4063161800000000 0.5061703500000000 0.7701329400000000 C
atom_frac 0.9063161900000001 0.4938296099999999 0.7298667299999999 C
atom_frac 0.6320625199999999 0.5489279699999999 0.3980588500000000 C
atom_frac 0.1320630500000000 0.4510714800000000 0.1019419000000000 C
atom_frac 0.3679372900000000 0.4510717999999999 0.6019414000000000 C
atom_frac 0.8679375000000000 0.5489283500000000 0.8980584799999999 C
atom_frac 0.7238931400000000 0.4468111299999999 0.3659677199999999 C
atom_frac 0.2238927200000000 0.5531891900000000 0.1340328000000000 C
atom_frac 0.2761072600000000 0.5531890500000000 0.6340322800000000 C
atom_frac 0.7761071899999999 0.4468112900000000 0.8659673200000000 C
atom_frac 0.6197585000000000 0.6349408200000000 0.4961910900000000 C
atom_frac 0.1197596300000000 0.3650582800000000 0.0038099900000000 C
atom_frac 0.3802415100000000 0.3650588200000000 0.5038093800000000 C
atom_frac 0.8802410300000000 0.6349411500000000 0.9961908700000000 C
atom_frac 0.8147622799999999 0.3592670300000000 0.4267791100000000 C
atom_frac 0.3147593500000000 0.6407361100000000 0.0732214300000000 C
atom_frac 0.1852390300000000 0.6407336499999999 0.5732208900000000 C
atom_frac 0.6852387800000000 0.3592657400000000 0.9267781699999998 C
atom_frac 0.4585228200000000 -0.0006432500000000 0.3641796000000000 C
atom_frac 0.9585229800000000 1.0006429699999999 0.1358202400000000 C
atom_frac 0.5414773200000000 1.0006431800000000 0.6358201300000000 C
atom_frac 0.0414772400000000 -0.0006428500000000 0.8641794899999999 C
atom_frac 0.6640560599999999 0.9135760900000000 0.3519929100000000 C
atom_frac 0.1640563200000000 0.0864234200000000 0.1480069000000000 C
atom_frac 0.3359440800000000 0.0864239100000000 0.6480069300000000 C
atom_frac 0.8359439300000000 0.9135765800000000 0.8519929700000000 C
atom_frac 0.6824354500000001 0.0438145800000000 0.3794507000000000 C
atom_frac 0.1824355700000000 0.9561848299999999 0.1205492800000000 C
atom_frac 0.3175646300000000 0.9561853800000001 0.6205492400000000 C
atom_frac 0.8175647000000000 0.0438150900000000 0.8794506999999999 C
atom_frac 0.3088182000000000 0.0037967900000000 0.3722616499999999 C
atom_frac 0.8088183600000000 0.9962026900000001 0.1277380900000000 C
atom_frac 0.6911819500000000 0.9962030800000001 0.6277380100000000 C
atom_frac 0.1911819100000000 0.0037973400000000 0.8722614300000000 C
atom_frac 0.0969281000000000 0.9295504100000000 0.3789926900000000 C
atom_frac 0.5969283800000000 0.0704493200000000 0.1210073600000000 C
atom_frac 0.9030720300000000 0.0704495200000000 0.6210071400000000 C
atom_frac 0.4030719000000000 0.9295506900000001 0.8789923399999999 C
atom_frac 0.0893594200000000 0.0627018300000000 0.3970531099999999 C
atom_frac 0.5893593300000000 0.9372978400000000 0.1029471700000000 C
atom_frac 0.9106407799999999 0.9372980800000000 0.6029469300000000 C
atom_frac 0.4106408000000000 0.0627021600000000 0.8970527100000000 C
atom_frac 0.5497520600000000 0.5738804900000000 0.3117925100000000 N
atom_frac 0.0497524600000000 0.4261187699999999 0.1882078200000000 N
atom_frac 0.4502478400000000 0.4261193200000001 0.6882074699999999 N
atom_frac 0.9502485199999999 0.5738804600000000 0.8117920500000000 N
atom_frac 0.6967100200000000 0.4149154200000000 0.2602200300000000 N
atom_frac 0.1967101400000000 0.5850838700000000 0.2397806800000000 N
atom_frac 0.3032905400000000 0.5850848000000001 0.7397799300000000 N
atom_frac 0.8032902400000000 0.4149157000000001 0.7602198500000000 N
atom_frac 0.2327663900000000 0.8946005800000000 0.3632762399999999 N
atom_frac 0.7327666900000001 0.1053989400000000 0.1367237400000000 N
atom_frac 0.7672337200000000 0.1053993200000000 0.6367235600000000 N
atom_frac 0.2672335500000000 0.8946010399999998 0.8632760700000000 N
atom_frac 0.2234198400000000 0.1070828000000000 0.3929134600000000 N
atom_frac 0.7234198300000000 0.8929166800000000 0.1070864800000000 N
atom_frac 0.7765803299999999 0.8929170800000001 0.6070863600000000 N
atom_frac 0.2765803900000000 0.1070832800000000 0.8929130300000000 N
atom_frac 0.5250547700000000 0.8873097800000000 0.3416610800000000 N
atom_frac 0.0250550800000000 0.1126898900000000 0.1583389400000000 N
atom_frac 0.4749454299999999 0.1126901400000000 0.6583388400000000 N
atom_frac 0.9749452000000000 0.8873101599999998 0.8416611300000000 N
atom_frac 0.5516322000000000 0.0962702100000000 0.3857380700000000 N
atom_frac 0.0516322900000000 0.9037295100000001 0.1142617900000000 N
atom_frac 0.4483678400000000 0.9037298000000001 0.6142616900000000 N
atom_frac 0.9483680100000000 0.0962706200000000 0.8857379299999999 N
atom_frac 0.5014693000000000 0.6926922500000000 0.5075127400000000 O
atom_frac 1.0014701399999997 0.3073077200000000 -0.0075126700000000 O
atom_frac 0.4985308100000000 0.3073078800000000 0.4924871400000000 O
atom_frac -0.0014695100000000 0.6926923900000000 1.0075128000000000 O
atom_frac 0.7254717499999999 0.6534278200000000 0.5565860700000000 O
atom_frac 0.2254722700000000 0.3465729800000000 0.9434137099999998 O
atom_frac 0.2745282200000000 0.3465722299999999 0.4434140400000000 O
atom_frac 0.7745278699999999 0.6534273900000001 0.0565857300000000 O
atom_frac 0.8061711900000000 0.3599547700000000 0.5283255900000000 O
atom_frac 0.3061739300000000 0.6400436600000000 0.9716737800000000 O
atom_frac 0.1938285200000000 0.6400441300000000 0.4716743400000000 O
atom_frac 0.6938278100000000 0.3599547900000000 0.0283256000000000 O
atom_frac 0.8908657100000000 0.2818089600000000 0.3694868399999999 O
atom_frac 0.3908674700000000 0.7181895400000001 0.1305129700000000 O
atom_frac 0.1091332200000000 0.7181901600000000 0.6305128399999999 O
atom_frac 0.6091344000000000 0.2818096500000000 0.8694863699999998 O
