#=======================================================
# FHI-aims file: ./geometry.in
# Created using the Atomic Simulation Environment (ASE)
# Fri Jan 14 15:06:22 2022
#=======================================================
lattice_vector 6.7383837059999996 0.0000000000000000 -1.1132029999999999 
lattice_vector -2.4911061700000001 10.2011884160000008 -3.6678340000000000 
lattice_vector 0.1016471320000000 0.0174786730000000 11.4935524349999998 
atom_frac 0.2639162973374241 0.8007720375846785 0.1558222603303675 Cu
atom_frac 0.7366520708327753 0.1993036613580941 0.8442173205834395 Cu
atom_frac 0.1910906219119114 0.6983425658287814 0.6176617108005759 H
atom_frac 0.8088560160056133 0.3016774147651162 0.3822859509574316 H
atom_frac 0.8214787262260970 0.8327644819339284 0.4309602702309119 H
atom_frac 0.1787866152336264 0.1671603214069108 0.5690400895400033 H
atom_frac 0.9406666507296748 0.9483015394017899 0.3711564018337797 H
atom_frac 0.0594928092575771 0.0517133179611733 0.6289207345156883 H
atom_frac 0.2648478538994539 0.3609291786397860 0.1346465983657836 H
atom_frac 0.7352012221916624 0.6392785527896976 0.8655710124265213 H
atom_frac 0.1814105433533797 0.5085212050974377 0.6945248801024848 H
atom_frac 0.8185349135148384 0.4915418202838708 0.3054738160411504 H
atom_frac 0.2260221267112712 0.9236686483020762 0.7782103777819317 H
atom_frac 0.7742705400001810 0.0763642365282706 0.2216435384507136 H
atom_frac 0.3203459810277136 0.4704831662336558 0.3708848317145623 H
atom_frac 0.6795810385452157 0.5293727134528936 0.6292930692081883 H
atom_frac 0.2112409399345978 0.5510975891059857 0.9233914912486298 H
atom_frac 0.7889641439693236 0.4490957272402127 0.0766573985343726 H
atom_frac 0.3671704370376005 0.3453796768655550 0.5112997558389836 H
atom_frac 0.6327898939646701 0.6544272951100538 0.4888161709477432 H
atom_frac 0.3560407299980780 0.1057112479663829 0.4244968599414207 H
atom_frac 0.6433396931033145 0.8939676676500810 0.5754089277523989 H
atom_frac 0.4060603039023860 0.6187841737116599 0.1765611799278801 H
atom_frac 0.5937969160485040 0.3810202218030483 0.8233420855797107 H
atom_frac 0.1938143367514513 0.6178053453197094 0.2214852341307534 H
atom_frac 0.8061253213419235 0.3821892525294643 0.7784014482512731 H
atom_frac 0.2003013621910981 0.7126854314994587 0.7169670109269077 C
atom_frac 0.7997332145291409 0.2873678710739114 0.2829850109476624 C
atom_frac 0.9109940861593061 0.8455189728680068 0.3628220786922541 C
atom_frac 0.0892358702471228 0.1544744600165870 0.6371723935191795 C
atom_frac 0.2819772520926520 0.3072187372927075 0.1981715632239656 C
atom_frac 0.7188633173750817 0.6928843418359421 0.8019074694851228 C
atom_frac 0.2702189330415976 0.1721211061767676 0.1481900554161797 C
atom_frac 0.7313029616387964 0.8281595493863207 0.8518036924472482 C
atom_frac 0.2459863194616573 0.9745925862038901 0.0313181268059565 C
atom_frac 0.7529540556270502 0.0254875222356929 0.9684364148653233 C
atom_frac 0.1966303514466858 0.6081558402828763 0.7585064943769596 C
atom_frac 0.8037268829939849 0.3919502731375104 0.2415179929052655 C
atom_frac 0.2180519834717458 0.8375566931306437 0.8042008848371225 C
atom_frac 0.7816899086041572 0.1624849606775953 0.1956842697076766 C
atom_frac 0.3138405853663572 0.3661209513409176 0.3284684327097835 C
atom_frac 0.6865634333916188 0.6337908852495318 0.6716621579975596 C
atom_frac 0.2908458352041947 0.0977907384821748 0.2304666609176920 C
atom_frac 0.7094535758072239 0.9021901086360272 0.7694356861276433 C
atom_frac 0.2300615008793372 0.8529220483940492 0.9309333821656409 C
atom_frac 0.7691722630317201 0.1471049443907901 0.0689265909568491 C
atom_frac 0.2125406859636669 0.6302442773203794 0.8873316040079402 C
atom_frac 0.7878398938018093 0.3699118750686168 0.1126667401574580 C
atom_frac 0.3381745495488602 0.2934136202533821 0.4092058919214309 C
atom_frac 0.6620392091962229 0.7064090138733335 0.5909230476126482 C
atom_frac 0.3285760525051344 0.1600576720288700 0.3628153125318079 C
atom_frac 0.6712206347327340 0.8398258721374389 0.6372361159504081 C
atom_frac 0.7562874808176260 0.7487240238194985 0.2062605915009783 S
atom_frac 0.2437302613027582 0.2513634443903995 0.7937755273976990 S
atom_frac 0.1506746826546675 0.8086770687731502 0.4063725974224185 S
atom_frac 0.8496025648805701 0.1912819595043231 0.5936772496822301 S
atom_frac 0.2426183570679399 0.0914764080848158 0.0247115732338372 N
atom_frac 0.7579613631622876 0.9086995608977446 0.9751636034192046 N
atom_frac 0.2296423454700900 0.7501673718567119 0.9703995351452052 N
atom_frac 0.7699070738269213 0.2498928529910670 0.0295172766454570 N
atom_frac 0.2723064715049475 0.9719142639594196 0.1521550950695313 N
atom_frac 0.7246127843470730 0.0278871939005185 0.8477463150257452 N
atom_frac 0.6241705143852130 0.8330297925591169 0.1834309711648742 O
atom_frac 0.3758840721197174 0.1671819790996736 0.8167171183105991 O
atom_frac 0.1206683771297108 0.6656390608416416 0.3644740825084156 O
atom_frac 0.8793584752914612 0.3342839089863645 0.6354521303232731 O
atom_frac 0.6407495570390295 0.6289352224501101 0.2175962859166773 O
atom_frac 0.3592196793300176 0.3711865179645528 0.7824617329134044 O
atom_frac 0.2922069140009995 0.8658463952552894 0.3391437488649203 O
atom_frac 0.7083672094411071 0.1340788747349109 0.6611563832036325 O
atom_frac 0.8952088308032914 0.7194401418451051 0.1216087173400524 O
atom_frac 0.1045505630204246 0.2805691388282199 0.8782904227600452 O
atom_frac 0.2573845108153705 0.6211546067312382 0.1496006743905055 O
atom_frac 0.7425774867518838 0.3786508271338036 0.8502686979627614 O
atom_frac 0.2195775789201946 0.8798127659172365 0.5414715451334686 O
atom_frac 0.7802391552477914 0.1199903198458969 0.4586240131544628 O
