#=======================================================
# FHI-aims file: ./geometry.in
# Created using the Atomic Simulation Environment (ASE)
# Tue Nov 30 12:20:16 2021
#=======================================================
lattice_vector 6.4162978480000001 0.0247063480000000 -0.0109468780000000 
lattice_vector 0.0285385320000000 6.1905796549999996 -2.9321995009999999 
lattice_vector -0.0133742000000000 0.1766723560000000 8.3688431669999996 
atom_frac 0.0000000000000000 0.0000000000000000 0.0000000000000000 Fe
atom_frac 0.5000023756511284 0.0000007382865803 0.9999990993748682 Fe
atom_frac 0.0041096018204954 0.5434971876095603 0.7259530437336749 H
atom_frac 0.4962715393286602 0.5404798689699817 0.7260630059421231 H
atom_frac 0.5037453351890306 0.1857318090707025 0.7260713380989969 H
atom_frac 0.0041523639598182 0.8172636459506964 0.2741329314558245 H
atom_frac 0.9958884997198894 0.4565030715731809 0.2740474283976866 H
atom_frac 0.5037296733829777 0.4595219771693877 0.2739380262823019 H
atom_frac 0.4962558749063605 0.8142700708428592 0.2739285110472238 H
atom_frac 0.9958473020848189 0.1827350076269312 0.7258669801646036 H
atom_frac 0.0007136566611763 0.5250368417964779 0.8488593269195233 C
atom_frac 0.4999407307625817 0.5265998835040904 0.8506693892766820 C
atom_frac 0.5000090083459625 0.3241369474224812 0.8506764424948798 C
atom_frac 0.0007309362140546 0.6760152616880789 0.1512155968521256 C
atom_frac 0.9992828889369605 0.4749633898282397 0.1511423284293372 C
atom_frac 0.5000589267200654 0.4734004032366811 0.1493298996371806 C
atom_frac 0.4999906431909337 0.6758649387072495 0.1493234067906357 C
atom_frac 0.9992687238848319 0.3239849912785004 0.8487848751399483 C
atom_frac 0.0013941236960946 0.7027542974521455 0.0000515079095394 N
atom_frac 0.5004136571574378 0.7085486354794809 0.9999857513928702 N
atom_frac 0.4995860088871922 0.2914500180981392 0.0000141602275505 N
atom_frac 0.9986055423485354 0.2972443561254821 0.9999484037108886 N
atom_frac 0.7320271654315392 0.0952517490591731 0.1766588898407235 N
atom_frac 0.2679526260046714 0.0812721232602911 0.1767017608606735 N
atom_frac 0.7320485848039837 0.9187282248127104 0.8232951617574926 N
atom_frac 0.2679709263571439 0.9047471133797983 0.8233339234497591 N
atom_frac 0.7329758499296233 0.1192898895220225 0.3286721350667818 N
atom_frac 0.2669875981060272 0.2093314941910194 0.3286899190943444 N
atom_frac 0.7330104967753498 0.7906718962212482 0.6713140399367178 N
atom_frac 0.2670253863281928 0.8807116526495732 0.6713395448614961 N
atom_frac 0.7429244367146526 0.1452719855508704 0.4748182117192102 N
atom_frac 0.2570119658515254 0.3295589747651987 0.4748286066180186 N
atom_frac 0.7429892390113794 0.6704429726967548 0.5251688763717937 N
atom_frac 0.2570736595932530 0.8547283411802699 0.5251798942557357 N
