#=======================================================
# FHI-aims file: ./geometry.in
# Created using the Atomic Simulation Environment (ASE)
# Fri Jan 14 15:06:22 2022
#=======================================================
lattice_vector 6.7534685330000004 -0.0183696390000000 -0.0002409150000000 
lattice_vector -3.3978910899999999 7.3677533630000003 0.0008056220000000 
lattice_vector -0.0002773550000000 0.0008361860000000 11.6777799620000007 
atom_frac 0.5647814491811332 0.4108215801586183 0.6012448530685716 V
atom_frac 0.4351304197572006 0.5893925077694393 0.1011228166412508 V
atom_frac 0.1448928054326188 0.5737031198016214 0.8951815116411126 V
atom_frac 0.8547976539774496 0.4260405529176409 0.3953758951580468 V
atom_frac 0.4352276695913843 0.5891730256768779 0.3987556039996817 V
atom_frac 0.5648596487905166 0.4106142656703114 0.8988802081760240 V
atom_frac 0.8551051363017877 0.4262928144607586 0.1048275083763883 V
atom_frac 0.1451917378351625 0.5739472183762758 0.6046159987032594 V
atom_frac 0.2977532653125792 0.9849165885371464 0.7499677414075947 Cu
atom_frac 0.7022386379162526 0.0150644013284591 0.2500361415534229 Cu
atom_frac 0.6275276131987723 0.0139702712815151 0.5715743872360050 H
atom_frac 0.3725072043286062 0.9863282088815170 0.0715688373636496 H
atom_frac 0.6275110334117356 0.0136786359571985 0.9284239121040727 H
atom_frac 0.3724861765666603 0.9860365608151299 0.4284329197023310 H
atom_frac 0.0054839721135522 0.0226542602522954 0.5737197559983186 H
atom_frac 0.9945944872756131 0.9778542110247913 0.0737753095767459 H
atom_frac 0.0053896511017086 0.0221525486986351 0.9262182955205132 H
atom_frac 0.9945153370647902 0.9773443916596135 0.4262918328413434 H
atom_frac 0.7098403050139125 0.0139479058504648 0.6515056628224299 C
atom_frac 0.2901827594597746 0.9861993857398943 0.1515352585179954 C
atom_frac 0.7098329733494565 0.0137965936575100 0.8484669112462413 C
atom_frac 0.2901665323128951 0.9860480513683143 0.3484965067598225 C
atom_frac 0.9168622504234561 0.0173753439165267 0.6519841025165006 C
atom_frac 0.0831617861730363 0.9828709178655328 0.1520492951798218 C
atom_frac 0.9168305637516598 0.0171345037048383 0.8479562987592216 C
atom_frac 0.0831446952385376 0.9826355439827167 0.3480137844022195 C
atom_frac 0.0211142775392759 0.0182308973718222 0.7499602174413836 N
atom_frac 0.9788619942739205 0.9817690556315529 0.2500402385803396 N
atom_frac 0.6052885614651657 0.0118070996966679 0.7499932640907971 N
atom_frac 0.3947418821078584 0.9881916312987471 0.2500054804785137 N
atom_frac 0.4031249248287735 0.1960641915651279 0.6011253156043280 O
atom_frac 0.5965960272647239 0.8041765967771897 0.1009683236377512 O
atom_frac 0.1948930941606193 0.7879298519721659 0.8817405545020306 O
atom_frac 0.8044041264483967 0.2117819499278610 0.3820198009672069 O
atom_frac 0.5968864685331924 0.8039467071317574 0.3988751403868491 O
atom_frac 0.4034104646389309 0.1958275022036347 0.8990424086471689 O
atom_frac 0.8051032501593554 0.2120687946857345 0.1182521950795916 O
atom_frac 0.1956062446865802 0.7882180878991394 0.6179823684064373 O
atom_frac 0.5987101415456380 0.4545118111186143 0.4271349597072883 O
atom_frac 0.4004970692550883 0.5447429332269778 0.9273156082832585 O
atom_frac 0.1484868816876315 0.5652273093436123 0.0744345599925822 O
atom_frac 0.8515205075841195 0.4355753674953036 0.5743287043246993 O
atom_frac 0.4012613510494276 0.5454609857209149 0.5728560784906590 O
atom_frac 0.5995111287968626 0.4552733868582023 0.0726822782865426 O
atom_frac 0.8514991995547734 0.4347685964166956 0.9255650401835779 O
atom_frac 0.1484912242897424 0.5644450332953214 0.4256683257093457 O
atom_frac 0.6120945160644808 0.4738712844811631 0.7500788446195583 O
atom_frac 0.3879045631846055 0.5261327977674527 0.2499164736249426 O
atom_frac 0.1300317341966561 0.4987438343465130 0.7499207517256608 O
atom_frac 0.8699640414347130 0.5012507388043730 0.2500745671066936 O
