#=======================================================
# FHI-aims file: ./geometry.in
# Created using the Atomic Simulation Environment (ASE)
# Fri Jan 14 15:06:22 2022
#=======================================================
lattice_vector 11.0588153869999992 0.0000000000000000 2.9842399999999998 
lattice_vector 5.0015175689999998 10.3122669790000003 1.7856989999999999 
lattice_vector 0.0537529410000000 0.5200052970000000 19.5176221599999984 
atom_frac 0.4999999975959781 0.5000001225108477 0.9999999041075113 Co
atom_frac 0.0000007260563137 0.5000006385877996 0.9999998561785900 Co
atom_frac 0.9999990405733501 0.0000004563474789 0.9999999942749226 Co
atom_frac 0.3130525023065829 0.8236487305466297 0.0360273131769731 H
atom_frac 0.4184538704421782 0.6056891996611072 0.1378664163834813 H
atom_frac 0.3858545046605214 0.5226327408674578 0.2637889363812533 H
atom_frac 0.4760899501433117 0.1556363339377924 0.1886645643163689 H
atom_frac 0.4937857837236451 0.2579048276161515 0.0667619400216566 H
atom_frac 0.4526182583296432 0.4129610145387942 0.3554497756534828 H
atom_frac 0.4127642789505258 0.3330657286476253 0.4788937460199492 H
atom_frac 0.3467399141108984 0.0332263116773035 0.4149600100250054 H
atom_frac 0.3811661590329151 0.1163534332709943 0.2920784327822544 H
atom_frac 0.4334215598491937 0.2290471057652468 0.5736962609854003 H
atom_frac 0.3640574844695906 0.1727299636508235 0.6986323055853844 H
atom_frac 0.1808809547436141 0.9606030566645529 0.6410411985315888 H
atom_frac 0.2492692243244790 0.0178161539409416 0.5160621739244532 H
atom_frac 0.3570963855145238 0.0530760384154760 0.8010028437690407 H
atom_frac 0.2462579652958325 0.0270558159280796 0.9262467240117260 H
atom_frac 0.0327768591950957 0.0314837032447883 0.7380148795910060 H
atom_frac 0.9369509710060626 0.0052665872739652 0.8658364608210222 H
atom_frac 0.1847433690349050 0.3372006414558513 0.0893393972815915 H
atom_frac 0.2033386955194487 0.3320267445738878 0.2140777534922904 H
atom_frac 0.8577955743216775 0.7034861414859890 0.2319651235589291 H
atom_frac 0.8506201369520382 0.6914630256025661 0.1070540515651999 H
atom_frac 0.0915845172926524 0.3053567410708524 0.3279192793299330 H
atom_frac 0.0756263691508181 0.2954627012754472 0.4554179418503778 H
atom_frac 0.9506871680468548 0.7096461323923507 0.4419947709788515 H
atom_frac 0.9694940246738782 0.7177336530869666 0.3145332374455306 H
atom_frac 0.6869470831813799 0.1763509956108464 0.9639737405376393 H
atom_frac 0.5815466076044016 0.3943105593658274 0.8621339854943528 H
atom_frac 0.6141441790572273 0.4773669783050494 0.7362122558528909 H
atom_frac 0.5239109907138797 0.8443644028874645 0.8113356773374603 H
atom_frac 0.5062147089623322 0.7420969059069334 0.9332377666104534 H
atom_frac 0.5473799772168845 0.5870397013315484 0.6445508815589348 H
atom_frac 0.5872348345152361 0.6669330455960180 0.5211069546014072 H
atom_frac 0.6532614326433120 0.9667715316074135 0.5850399219444995 H
atom_frac 0.6188338469914640 0.8836453738421000 0.7079216160023095 H
atom_frac 0.5665793295221989 0.7709517601017809 0.4263026226451315 H
atom_frac 0.6359429843653928 0.8272698212605931 0.3013675829751890 H
atom_frac 0.8191212937808245 0.0393947936051333 0.3589585949183913 H
atom_frac 0.7507334539479728 0.9821807513998807 0.4839371279127320 H
atom_frac 0.6429031723386344 0.9469237653954536 0.1989966699938037 H
atom_frac 0.7537420976421245 0.9729468625238767 0.0737534742331789 H
atom_frac 0.9672236096398876 0.9685160816666283 0.2619850089695672 H
atom_frac 0.0630503995991418 0.9947332046224205 0.1341632892200195 H
atom_frac 0.8152571144394686 0.6628011179517160 0.9106597960332647 H
atom_frac 0.7966604233741066 0.6679740300503880 0.7859217385660812 H
atom_frac 0.1422026428016494 0.2965146261533107 0.7680345070189744 H
atom_frac 0.1493798929233279 0.3085377301221968 0.8929458152909006 H
atom_frac 0.9084141387902919 0.6946430557551011 0.6720803729524434 H
atom_frac 0.9243740996841653 0.7045370836359625 0.5445819467101956 H
atom_frac 0.0493146323063627 0.2903527145751709 0.5580044874494020 H
atom_frac 0.0305064441611052 0.2822661318244499 0.6854666511150427 H
atom_frac 0.2853743446560629 0.4822273289411142 0.9723997857452531 C
atom_frac 0.2343492121937062 0.6150439361893730 0.9929182052161208 C
atom_frac 0.1167732554533884 0.7296749363804055 0.9931384375117032 C
atom_frac 0.2661201474866245 0.7717042782851067 0.0210948879766164 C
atom_frac 0.9834981265516731 0.7674263033721688 0.9787305549680808 C
atom_frac 0.4295671470606735 0.5066940190095579 0.1521253721208566 C
atom_frac 0.4145269776503327 0.4577907106292470 0.2222092200824122 C
atom_frac 0.4323871876884268 0.3279460670063443 0.2394641036080785 C
atom_frac 0.4611833969335635 0.2562317905687621 0.1810161698174895 C
atom_frac 0.4733418955863087 0.3114330322623999 0.1122092901114726 C
atom_frac 0.4176488365005184 0.2736246011336902 0.3129200068263814 C
atom_frac 0.4274567086716132 0.3304951991465189 0.3681217715044197 C
atom_frac 0.4068109490856529 0.2834413327753892 0.4384134255012597 C
atom_frac 0.3742669067495683 0.1766124287070241 0.4586020272088263 C
atom_frac 0.3678437050990481 0.1180228906096943 0.4029698228237634 C
atom_frac 0.3892839132038972 0.1644965639304630 0.3326072188471088 C
atom_frac 0.3440362552184197 0.1324051331078877 0.5333655630077699 C
atom_frac 0.3767935082912360 0.1710041679101336 0.5876851019634657 C
atom_frac 0.3383902460417900 0.1376604133486623 0.6590107198640424 C
atom_frac 0.2622264441503006 0.0652391989474665 0.6811006830141222 C
atom_frac 0.2344843048974212 0.0215256289376384 0.6267666298487596 C
atom_frac 0.2747792107608902 0.0531809654460673 0.5555398912007020 C
atom_frac 0.2070039587568004 0.0431957299940819 0.7560001834908405 C
atom_frac 0.2641934872874003 0.0420830181283876 0.8121238076118472 C
atom_frac 0.2037994135905024 0.0269245849227246 0.8824842643441568 C
atom_frac 0.0863760856043641 0.0284187077957156 0.7773741928101714 C
atom_frac 0.0302488710426090 0.0157407071077742 0.8486214052284992 C
atom_frac 0.1147084784074082 0.4159992988307692 0.1231990669131093 C
atom_frac 0.1228641049579693 0.4138755669795131 0.1929685289768130 C
atom_frac 0.0300519219716051 0.5167621524008297 0.2352682184311448 C
atom_frac 0.9331751197690606 0.6204998788059656 0.2023625334642958 C
atom_frac 0.9285489931688887 0.6153724433692672 0.1326814800821836 C
atom_frac 0.0294911147973521 0.5124997017193708 0.3111819247717520 C
atom_frac 0.0610920569895086 0.3944514072914060 0.3528844394998174 C
atom_frac 0.0503333788720965 0.3895609613815338 0.4257713583208727 C
atom_frac 0.0080310792944545 0.5022735409098259 0.4609205926034363 C
atom_frac 0.9818207313681313 0.6193966407324824 0.4182581910717075 C
atom_frac 0.9917544253403963 0.6247481181488509 0.3453245804555465 C
atom_frac 0.7146247926606863 0.5177733939141973 0.0276007329476400 C
atom_frac 0.7656508268932569 0.3849567936509075 0.0070821749572404 C
atom_frac 0.8832263446739647 0.2703267642732214 0.0068619209571921 C
atom_frac 0.7338794434291314 0.2282974482530023 0.9789049571750252 C
atom_frac 0.0165028050939213 0.2325744593375703 0.0212691733685020 C
atom_frac 0.5704333309859139 0.4933057400173766 0.8478750297569703 C
atom_frac 0.5854735003962547 0.5422090483976875 0.7777911817954146 C
atom_frac 0.5676146310879913 0.6720527281922131 0.7605361814546896 C
atom_frac 0.5388184456938492 0.7437689532414635 0.8189839333168152 C
atom_frac 0.5266594750188959 0.6885667596339857 0.8877904599295691 C
atom_frac 0.5823516415460688 0.7263751578932442 0.6870803950514527 C
atom_frac 0.5725428676047457 0.6695045528954395 0.6318787688929389 C
atom_frac 0.5931890661503235 0.7165574484532229 0.5615871366005648 C
atom_frac 0.6257344400046492 0.8233854145776933 0.5413979047606786 C
atom_frac 0.6321572026955522 0.8819759234883692 0.5970300874412756 C
atom_frac 0.6107160928204820 0.8355022431826312 0.6673928299374551 C
atom_frac 0.6559655304954078 0.8675917393634833 0.4666343906662007 C
atom_frac 0.6232073995033645 0.8289946461879368 0.4123148083015734 C
atom_frac 0.6616102227931934 0.8623393715627542 0.3409891686965310 C
atom_frac 0.7377749172432999 0.9347606188334081 0.3188985537096655 C
atom_frac 0.7655183825866275 0.9784712505187017 0.3732331853056863 C
atom_frac 0.7252216970337096 0.9468178486519960 0.4444600190643371 C
atom_frac 0.7929960711185660 0.9568050257306809 0.2439996833652671 C
atom_frac 0.7358065425879730 0.9579177375963752 0.1878760592442532 C
atom_frac 0.7962015272666818 0.9730761519025322 0.1175159773096794 C
atom_frac 0.9136239442710020 0.9715820479290472 0.2226256740459363 C
atom_frac 0.9697520606029784 0.9842600556019646 0.1513783231080765 C
atom_frac 0.8852920142785693 0.5840024346923087 0.8768006397190006 C
atom_frac 0.8771350323587798 0.5861251558757985 0.8070319897160728 C
atom_frac 0.9699463043633257 0.4832385893539879 0.7647319254640194 C
atom_frac 0.0668235363138834 0.3794999180199953 0.7976371188180805 C
atom_frac 0.0714510367064776 0.3846283123554954 0.8673183867739238 C
atom_frac 0.9705066395153708 0.4875000881216137 0.6888178660301489 C
atom_frac 0.9389065990934429 0.6055483895345546 0.6471152127825589 C
atom_frac 0.9496657161704648 0.6104378646310735 0.5742283156659694 C
atom_frac 0.9919675767884898 0.4977262559161274 0.5390790596789329 C
atom_frac 0.0181779247148128 0.3806031560934784 0.5817414612106687 C
atom_frac 0.0082428900127097 0.3752526425054797 0.6546751886418889 C
atom_frac 0.3259945795740933 0.6437403149522679 0.0107460579707137 N
atom_frac 0.1397771389859982 0.8267322937518388 0.0101265635184333 N
atom_frac 0.4603867328554970 0.4345736838620411 0.0971146837512364 N
atom_frac 0.0870825504555199 0.0147160632346086 0.9016716363273787 N
atom_frac 0.0171431084529843 0.5139988890060110 0.0932610301095806 N
atom_frac 0.6740054595128767 0.3562604148880126 0.9892543222026474 N
atom_frac 0.8602228908893748 0.1732684619729241 0.9898733033376671 N
atom_frac 0.5396123952496482 0.5654270648777525 0.9028853216243958 N
atom_frac 0.9129174886314504 0.9852846666056720 0.0983287438459897 N
atom_frac 0.9828587157512204 0.4860019065731791 0.9067380463902167 N
atom_frac 0.4136875863548752 0.4121812499700680 0.9711764658634008 O
atom_frac 0.2153522047994798 0.4378188898334301 0.9566147161541636 O
atom_frac 0.9417385599898652 0.6840549247518978 0.9752842722651278 O
atom_frac 0.9100993926432680 0.8891675134921472 0.9713308974530788 O
atom_frac 0.5863115271108867 0.5878175242735751 0.0288242347579484 O
atom_frac 0.7846478342874903 0.5621818400068577 0.0433856640192048 O
atom_frac 0.0582646325789824 0.3159448293454616 0.0247162273713712 O
atom_frac 0.0899006280205015 0.1108332681170978 0.0286684560857751 O
