#=======================================================
# FHI-aims file: ./geometry.in
# Created using the Atomic Simulation Environment (ASE)
# Wed Feb  9 14:46:27 2022
#=======================================================
lattice_vector 3.8437543500000002 -1.5550655499999999 -0.0010382900000000 
lattice_vector -1.8882836199999999 7.7292085799999999 0.0031173600000000 
lattice_vector 0.0015716500000000 -0.0039488100000000 10.6955430000000007 
atom_frac 0.4349939700000001 0.4328333200000001 0.5107790700000001 V
    initial_moment         1.000000
atom_frac 0.0650085200000000 0.0671674800000000 0.0107791000000000 V
    initial_moment        -1.000000
atom_frac 0.2135039200000000 0.5017093700000000 0.7422283000000000 H
atom_frac 0.2865066000000000 -0.0017078100000000 0.2422268800000001 H
atom_frac 0.5911717800000001 0.4767642200000001 0.2728874600000000 H
atom_frac 0.9088201200000000 1.0232362900000000 0.7728878600000000 H
atom_frac 0.3295295400000000 0.3094784199999999 0.7306142200000000 H
atom_frac 1.1704692800000003 0.1905205300000000 0.2306147200000000 H
atom_frac 0.1626211500000000 0.4534860500000000 0.2811921000000000 H
atom_frac 0.3373696900000000 1.0465123599999999 0.7811924100000002 H
atom_frac 0.5455949900000001 0.8439321900000000 0.4990477400000000 C
atom_frac 0.9544088900000000 0.6560687400000000 -0.0009530000000000 C
atom_frac 0.3716915500000000 0.0410470800000000 0.5050589600000001 C
atom_frac 0.1283101800000000 0.4589530200000000 1.0050613799999999 C
atom_frac 0.4901682200000000 -0.0483709600000000 0.5968533600000000 C
atom_frac 1.0098259999999999 0.5483693100000001 0.0968537600000000 C
atom_frac 0.4432111300000000 0.9398880199999999 0.4066825400000000 C
atom_frac 0.0567960700000000 0.5601131800000000 0.9066836700000002 C
atom_frac 0.6109994000000001 0.7075990600000001 0.4992324500000000 O
atom_frac 0.8890042200000002 0.7924018100000002 -0.0007697700000000 O
atom_frac 0.2656572900000000 0.1609895500000001 0.5134787200000002 O
atom_frac 0.2343452900000000 0.3390109700000000 1.0134820200000003 O
atom_frac 0.5403801600000000 -0.0298936500000000 0.7123501300000000 O
atom_frac 0.9596073700000000 0.5298918700000000 0.2123496500000000 O
atom_frac 0.4391912600000002 0.9374642400000002 0.2884582700000000 O
atom_frac 0.0608223700000001 0.5625381300000001 0.7884595400000000 O
atom_frac 0.3753389500000001 0.4298631100000001 0.6801124800000000 O
atom_frac 0.1246619600000000 0.0701360300000000 0.1801126400000000 O
atom_frac 0.3164962700000000 0.3971957699999999 0.3149957500000000 O
atom_frac 1.1835002100000005 1.1028046700000003 0.8149963700000001 O
atom_frac -0.1214885300000000 0.4586288000000000 0.4460258700000000 F
atom_frac 0.6214865000000002 1.0413688600000000 -0.0539752100000000 F
