#=======================================================
# FHI-aims file: ./geometry.in
# Created using the Atomic Simulation Environment (ASE)
# Fri Jan 14 15:06:22 2022
#=======================================================
lattice_vector 8.2836706370000002 0.0231451330000000 3.0923744680000000 
lattice_vector 1.1269732029999999 9.7618163829999993 2.9185811180000001 
lattice_vector 0.0920983010000000 0.3822238110000000 10.4878775389999994 
atom_frac 0.8532745880694109 0.1741033698052519 0.0612879621808062 Cd
atom_frac 0.1467369790109174 0.8259168735097620 0.9387036494202475 Cd
atom_frac 0.0056224132397205 0.3559022115344562 0.1701825666606922 H
atom_frac 0.9943835837472649 0.6440962307445517 0.8298167541175732 H
atom_frac 0.5025214269742762 0.2398920165882359 0.3335146931894855 H
atom_frac 0.4974801009878221 0.7600954069048527 0.6664785233145168 H
atom_frac 0.2083011075304171 0.3277099373334877 0.2940544382470378 H
atom_frac 0.7917036075255910 0.6722804340490782 0.7059417856011551 H
atom_frac 0.9894749485341950 0.9302579958564435 0.2792623674295244 H
atom_frac 0.0105019856751198 0.0697590456539672 0.7207346258640899 H
atom_frac 0.1937194008081279 0.8858649698299033 0.4042007814429242 H
atom_frac 0.8062526266492754 0.1141344572796186 0.5958016068957832 H
atom_frac 0.2960754920088249 0.0208332249973964 0.5428944254577746 H
atom_frac 0.7039163474203394 0.9791540331447521 0.4571036007097432 H
atom_frac 0.4490384607390894 0.0092245621556444 0.3802182358730449 H
atom_frac 0.5509505510073259 0.9907658145578819 0.6197788027210009 H
atom_frac 0.1980189839412391 0.5193997386827007 0.5680492413944978 H
atom_frac 0.8019839960853689 0.4805854004403828 0.4319499035532389 H
atom_frac 0.3362230607792825 0.7135431879196333 0.5582605912761096 H
atom_frac 0.6637808585491033 0.2864440690292085 0.4417367338831114 H
atom_frac 0.1523166730004490 0.3589592184647329 0.8954717651208386 H
atom_frac 0.8476738421079449 0.6410463300107667 0.1045301430022077 H
atom_frac 0.6109215793675704 0.4685337843406002 0.8677883409725384 H
atom_frac 0.3890808231305557 0.5314819670211507 0.1322138972257179 H
atom_frac 0.5697571134123937 0.0543895726498889 0.8636873605823753 H
atom_frac 0.4302601020288819 0.9456148480835297 0.1363155700525169 H
atom_frac 0.0478927056385174 0.2534570626880992 0.2260984468665796 C
atom_frac 0.9521123366752848 0.7465486960170864 0.7738972124104747 C
atom_frac 0.1622603557428661 0.2369718552919978 0.2941175299681902 C
atom_frac 0.8377349201811629 0.7630256405887650 0.7058804478959858 C
atom_frac 0.0401378160474053 0.0157612523892325 0.2853368889659863 C
atom_frac 0.9598400448651392 0.9842482837113806 0.7146685940753059 C
atom_frac 0.1544746874190110 0.9922043919311820 0.3548904345369621 C
atom_frac 0.8455044320969950 0.0077959479175078 0.6451143761026971 C
atom_frac 0.2189912247513349 0.1038930828770930 0.3593345482794775 C
atom_frac 0.7809980140200710 0.8961044324986889 0.6406632972641972 C
atom_frac 0.3474108619972683 0.0769442308372277 0.4308305016330324 C
atom_frac 0.6525812100508761 0.9230502037638930 0.5691673658348151 C
atom_frac 0.3327062202115131 0.2765439411931753 0.5157928126156578 C
atom_frac 0.6672994005823372 0.7234483212348055 0.4842073853397578 C
atom_frac 0.4216925644189047 0.3917137505403331 0.5043175136999025 C
atom_frac 0.5783099792912481 0.6082743406098814 0.4956847523295880 C
atom_frac 0.3303528505445002 0.5120527126586653 0.5382955588454763 C
atom_frac 0.6696521516598183 0.4879356655079902 0.4616992280477420 C
atom_frac 0.4081400914023804 0.6197674587760532 0.5332410088169935 C
atom_frac 0.5918620943071675 0.3802241135554282 0.4667508592041685 C
atom_frac 0.2551197432013411 0.0928497735064724 0.8749658441330226 C
atom_frac 0.7448935826466540 0.9071472481252909 0.1250431528348416 C
atom_frac 0.3532637342830328 0.1970076061237975 0.8736022645408499 C
atom_frac 0.6467484266487561 0.8029897066620676 0.1263993670283057 C
atom_frac 0.2809348915177168 0.3304010600057765 0.8853013190393852 C
atom_frac 0.7190702775882727 0.6696035887012924 0.1146965187080583 C
atom_frac 0.3747185180988738 0.4279976083057233 0.8827891295798623 C
atom_frac 0.6252849770525942 0.5720097922251669 0.1172170172914093 C
atom_frac 0.5372769501714602 0.3930681237855539 0.8724098120761499 C
atom_frac 0.4627295064594891 0.6069446336146739 0.1275901569520813 C
atom_frac 0.6119642168876782 0.2543298688446001 0.8709936870872994 C
atom_frac 0.3880364841449763 0.7456808770380122 0.1290056783147547 C
atom_frac 0.5144690377975253 0.1586287610568746 0.8681764391591359 C
atom_frac 0.4855414212097956 0.8413711145691993 0.1318383297803011 C
atom_frac 0.2939836307780155 0.5671602056269761 0.9018850023729500 C
atom_frac 0.7060124739785609 0.4328481997871947 0.0981220904509285 C
atom_frac 0.9879041007453824 0.1448673834953098 0.2213520670227354 N
atom_frac 0.0120914968424444 0.8551454619113629 0.7786463119195873 N
atom_frac 0.4125284081509122 0.1979514733323100 0.4242698519709976 N
atom_frac 0.5874697122378267 0.8020430173672465 0.5757262165187668 N
atom_frac 0.1014319651604439 0.1118328107920874 0.9144406210965883 O
atom_frac 0.8985800060347133 0.8881556485858156 0.0855778323819860 O
atom_frac 0.3347276796501790 0.9840305426618484 0.8392130510333902 O
atom_frac 0.6652915397762771 0.0159674560828549 0.1607967967324625 O
atom_frac 0.3742320826486251 0.6724147374262516 0.8368373175370395 O
atom_frac 0.6257569971772201 0.3275932088094323 0.1631557651943893 O
atom_frac 0.1499430075276820 0.5730405635269450 0.9870991213247466 O
atom_frac 0.8500524954213378 0.4269640710160730 0.0128996634890511 O
atom_frac 0.7593644688739194 0.2165604729132936 0.8700160126267137 O
atom_frac 0.2406464236769922 0.7834555081731623 0.1299798444050566 O
atom_frac 0.1973281572056892 0.2542470770076121 0.6061881160356040 O
atom_frac 0.8026713052373469 0.7457463527102277 0.3938088054796440 O
