#=======================================================
# FHI-aims file: ./geometry.in
# Created using the Atomic Simulation Environment (ASE)
# Wed Feb  9 14:46:21 2022
#=======================================================
lattice_vector 12.0870790699999997 19.0817474199999992 -7.1800898999999996 
lattice_vector 10.4989627700000003 -19.1098323500000014 -9.3248293899999997 
lattice_vector -0.0196739600000000 0.0611700700000000 -23.7109054199999996 
atom_frac 0.0546640600000000 0.9549657900000000 0.4885345300000000 Zn
atom_frac 0.0544680700000000 0.0994324100000000 0.4570467300000000 Zn
atom_frac 0.9454700899999999 0.9884669699999997 0.4549662000000001 Zn
atom_frac 0.9455050600000000 0.9569704499999999 0.5995491300000001 Zn
atom_frac 0.9435024200000000 0.5430996300000001 0.0115565500000000 Zn
atom_frac 0.0566387900000000 0.5113945700000000 0.0429620200000000 Zn
atom_frac 0.9433664100000000 0.4004681599999999 0.0450857000000001 Zn
atom_frac 0.0563991300000000 0.5447509900000000 0.9005274000000000 Zn
atom_frac 0.9177675600000001 0.8437431700000001 0.7496219300000000 H
atom_frac 0.9101682000000000 0.8032497700000001 0.8321825800000002 H
atom_frac 0.0922095999999999 0.6658774800000000 0.7504109799999998 H
atom_frac 0.1345190900000000 0.7407299300000000 0.6678179400000001 H
atom_frac 0.9076093399999999 0.6573962500000000 0.9260309900000002 H
atom_frac 0.8655813499999998 0.6980792599999999 0.8932473900000001 H
atom_frac 0.0828878299999999 0.8329105899999999 0.5740043400000001 H
atom_frac 0.0902635600000001 0.7578046200000002 0.6068599300000000 H
atom_frac 0.9166957399999999 0.0739506799999999 0.3334853600000001 H
atom_frac 0.9087236500000000 0.1066500600000001 0.2587424099999999 H
atom_frac 0.0935390800000000 0.4258120700000000 0.1561954700000000 H
atom_frac 0.1356794199999999 0.3928407799999999 0.1965528100000001 H
atom_frac 0.9067789200000000 0.2503378000000001 0.1671253900000000 H
atom_frac 0.8647062300000000 0.1678771000000000 0.2421013300000000 H
atom_frac 0.0836659000000000 0.2495713600000000 0.3424428100000000 H
atom_frac 0.0917080100000000 0.3322921800000000 0.3017067199999999 H
atom_frac 0.1773872300000000 0.0885613100000000 0.4115493700000000 C
atom_frac 0.0001249300000000 0.1393083800000000 0.3604697700000001 C
atom_frac 1.0000800700000001 0.9099563000000001 0.4100185000000000 C
atom_frac 0.8226238100000000 0.9113185300000000 0.5886649100000000 C
atom_frac 0.0002871300000000 0.8607227599999999 0.6393636200000001 C
atom_frac 0.9996785500000001 0.0900254300000000 0.5899659200000000 C
atom_frac 0.0001400400000000 0.5884871400000000 0.0888758200000000 C
atom_frac 0.0001244300000000 0.3605257700000000 0.1392535600000000 C
atom_frac 0.8199407500000000 0.4103748300000000 0.0899822300000001 C
atom_frac -0.0002864300000001 0.4110188699999999 0.9115608200000000 C
atom_frac 0.9999232000000001 0.6392253300000000 0.8606635400000000 C
atom_frac 0.1800259799999998 0.5900683399999999 0.9097444500000001 C
atom_frac 1.0002362199999999 0.8047359499999999 0.6953257000000000 C
atom_frac 1.0000030000000000 0.6952311700000000 0.8046909799999997 C
atom_frac 0.9572620400000000 0.7779536400000000 0.7668452000000000 C
atom_frac 0.0443798700000001 0.7234007500000001 0.7331711500000000 C
atom_frac 0.9557460900000000 0.7225796300000000 0.8207622099999999 C
atom_frac 0.0431125100000000 0.7760153700000000 0.6792545400000001 C
atom_frac 0.0001588800000000 0.1952531999999999 0.3044801200000001 C
atom_frac 0.0001591000000000 0.3045744400000000 0.1951641800000000 C
atom_frac 0.9567787899999999 0.1791855100000000 0.2762790099999999 C
atom_frac 0.0449829800000000 0.3206357900000000 0.2219104100000000 C
atom_frac 0.9553599400000001 0.2330888800000000 0.2238149699999999 C
atom_frac 0.0435678000000000 0.2667527400000000 0.2772239100000000 C
atom_frac 0.0001879499999999 0.6262303499999999 0.1266936000000001 C
atom_frac 0.9758057700000000 0.6744125500000000 0.1153728400000001 C
atom_frac 0.9759194400000001 0.7095592700000000 0.1504494400000000 C
atom_frac 1.0003391800000001 0.6981991699999999 0.1986434100000000 C
atom_frac 0.0246763000000000 0.6499314100000000 0.2099511200000000 C
atom_frac 0.0246406099999999 0.6148438799999999 0.1748127800000000 C
atom_frac 1.0003962700000000 0.7337261300000000 0.2341274700000000 C
atom_frac 1.0003950699999999 0.7645775500000002 0.2648643300000000 C
atom_frac 1.0003374300000001 0.8001296300000000 0.3003184600000000 C
atom_frac 0.9465476700000000 0.8129341300000000 0.3243629300000001 C
atom_frac 0.9464927499999999 0.8481153599999998 0.3594010200000002 C
atom_frac 1.0001757400000000 0.8721950300000000 0.3722403400000000 C
atom_frac 0.0539514199999999 0.8594088499999999 0.3482485900000001 C
atom_frac 0.0540524300000000 0.8242974400000000 0.3131410700000001 C
atom_frac -0.0004073200000000 0.3732533000000000 0.8737710300000001 C
atom_frac 0.0244373500000000 0.4090849800000000 0.8011590200000001 C
atom_frac 0.0243183800000000 0.3739961800000000 0.7660250799999999 C
atom_frac -0.0005814500000001 0.3013566400000000 0.8017446899999999 C
atom_frac 0.9746004100000000 0.2655784200000000 0.8743958699999999 C
atom_frac 0.9746492500000000 0.3006496200000001 0.9095492399999999 C
atom_frac -0.0006488200000000 0.2658918400000000 0.7662019300000000 C
atom_frac 0.9993420400000002 0.2351499600000001 0.7353557799999998 C
atom_frac 0.9993773499999999 0.1997013700000000 0.6998008600000000 C
atom_frac 0.0532117300000000 0.2292569200000000 0.6333544400000000 C
atom_frac 0.0532659200000000 0.1942052600000000 0.5981874400000000 C
atom_frac 0.9995424899999998 0.1278020200000000 0.6277263100000001 C
atom_frac 0.9457163100000000 0.0982131800000000 0.6941293600000001 C
atom_frac 0.9456091500000001 0.1332897299999999 0.7292709700000000 C
atom_frac 0.7444067500000000 0.3726414900000000 0.1276840200000000 C
atom_frac 0.7074696000000000 0.4021900000000000 0.1518893700000000 C
atom_frac 0.6372551300000000 0.3670127400000000 0.1870896700000000 C
atom_frac 0.6004350700000000 0.3005423800000000 0.1997715999999999 C
atom_frac 0.6374476600000000 0.2710602900000000 0.1754591400000000 C
atom_frac 0.7076575100000000 0.3062092100000001 0.1403380500000000 C
atom_frac 0.5294364700000000 0.2649584600000000 0.2353339100000001 C
atom_frac 0.4678536000000000 0.2340859800000000 0.2661758200000000 C
atom_frac 0.3968507000000000 0.1984975599999999 0.3017347400000000 C
atom_frac 0.3598098700000000 0.2341317600000000 0.2907894500000001 C
atom_frac 0.2895938699999999 0.1989627200000000 0.3259497800000000 C
atom_frac 0.2529394300000001 0.1263972900000000 0.3737438900000000 C
atom_frac 0.2898814500000000 0.0907050600000000 0.3847130100000000 C
atom_frac 0.3601005700000000 0.1258928600000000 0.3496055400000000 C
atom_frac 0.2555616800000000 0.6280020900000000 0.8719474600000000 C
atom_frac 0.2923634400000000 0.6522124700000000 0.9015713600000002 C
atom_frac 0.3625770500000000 0.6874082900000000 0.8664706399999998 C
atom_frac 0.3995435500000000 0.7001014600000000 0.7999929099999998 C
atom_frac 0.3626669800000000 0.6758555800000000 0.7703990400000001 C
atom_frac 0.2924536800000000 0.6407338700000000 0.8054755100000001 C
atom_frac 0.4705458299999999 0.7355781200000000 0.7645360500000000 C
atom_frac 0.5321300499999999 0.7663646999999999 0.7337641299999998 C
atom_frac 0.6031367600000000 0.8017928600000001 0.6983248700000000 C
atom_frac 0.6400442799999999 0.7906514599999999 0.7340709300000002 C
atom_frac 0.7102657700000000 0.8257136200000000 0.6990046499999999 C
atom_frac 0.7470662500000000 0.8736049899999999 0.6264317000000001 C
atom_frac 0.7102504299999998 0.8847707499999999 0.5906325400000000 C
atom_frac 0.6400325600000000 0.8497598500000000 0.6257162900000000 C
atom_frac 0.9133715700000001 0.8012912100000001 0.7890929800000001 N
atom_frac 0.0893935499999999 0.7011688099999999 0.7109343500000000 N
atom_frac 0.9106146300000001 0.6998234300000000 0.8879133099999998 N
atom_frac 0.0871217800000000 0.7976692200000000 0.6121066900000000 N
atom_frac 0.9123564800000001 0.1120558999999999 0.2983774000000001 N
atom_frac 0.0905974600000000 0.3877556700000000 0.1986221300000001 N
atom_frac 0.9097642300000001 0.2108592199999999 0.2022028600000000 N
atom_frac 0.0880135100000000 0.2889959500000000 0.2999865400000000 N
atom_frac 1.0000137200000001 0.9999383700000001 0.5000158299999999 O
atom_frac 0.1491430300000000 0.0259975800000000 0.4274505500000000 O
atom_frac 0.0429757100000000 0.1554052800000000 0.3815258500000001 O
atom_frac 0.9688495499999999 0.9448103100000000 0.4035892000000000 O
atom_frac 0.1489511400000000 0.1227603600000000 0.4239859400000000 O
atom_frac 0.0312379599999997 0.9035573599999996 0.4449379800000002 O
atom_frac 0.9572484699999999 0.0754794400000001 0.3871930800000000 O
atom_frac 0.8509568400000000 0.9275026700000000 0.5259812699999999 O
atom_frac 0.9576522299999999 0.8820279699999999 0.6554951000000001 O
atom_frac 0.8509730300000000 0.9234275300000000 0.6230290800000000 O
atom_frac 0.0429455100000000 0.8871634899999999 0.5754929200000001 O
atom_frac 0.0308257000000000 0.1275532900000000 0.5239256000000000 O
atom_frac 0.9686691600000000 0.0240158400000000 0.6275463300000000 O
atom_frac -0.0000314700000000 0.4999477700000000 1.0000452500000001 O
atom_frac 0.9536043900000000 0.5764006699999999 0.0727121800000000 O
atom_frac 0.0377230000000001 0.4243771400000000 0.1178585500000000 O
atom_frac 0.8484165799999999 0.3727698300000000 0.0964186700000000 O
atom_frac 0.0466469899999999 0.5722690299999998 0.0766756200000001 O
atom_frac 0.8484085400000000 0.4763939799999999 0.0551379400000001 O
atom_frac 0.9624830299999999 0.3444042500000000 0.1129604900000000 O
atom_frac 0.9531084800000000 0.3768489200000000 0.9741556799999999 O
atom_frac 0.0368282099999999 0.6122242399999999 0.8445734200000001 O
atom_frac 0.0464157600000000 0.4735392100000000 0.8773095700000000 O
atom_frac 0.9629317700000000 0.6184301899999999 0.9245086100000000 O
atom_frac 0.1516366500000000 0.5551851100000000 0.9757795400000001 O
atom_frac 0.1514700600000000 0.5963358400000000 0.8722201600000000 O
atom_frac 0.9535447299999998 0.6896056499999998 0.0692800300000001 F
atom_frac 0.0468337000000001 0.5686834000000001 0.1899458600000000 F
atom_frac 0.0475914700000000 0.6368946500000000 0.2556776300000000 F
atom_frac 0.9530665399999999 0.7553457799999999 0.1374732200000001 F
atom_frac 0.8942261700000003 0.7903988400000002 0.3141142000000000 F
atom_frac 0.1064499900000000 0.8140909600000000 0.2907006400000000 F
atom_frac 0.1075821199999999 0.8820926900000000 0.3565408300000000 F
atom_frac 0.8928019699999995 0.8563865499999997 0.3819695100000001 F
atom_frac 0.0471766200000000 0.4774883400000000 0.7637249400000000 F
atom_frac 0.9519770900000000 0.2631686200000001 0.9779546299999999 F
atom_frac 0.9512096700000001 0.1968980399999999 0.9102994400000000 F
atom_frac 0.0476344599999999 0.4099559299999999 0.6973393000000000 F
atom_frac 0.1055757200000000 0.2917013400000000 0.6036557800000000 F
atom_frac 0.8931707700000001 0.1035225100000000 0.7917300600000000 F
atom_frac 0.8920542299999997 0.0364144200000000 0.7249737800000000 F
atom_frac 0.1069943900000000 0.2251234700000000 0.5363730400000000 F
atom_frac 0.7382990399999999 0.4640358700000000 0.1437286900000001 F
atom_frac 0.7386514199999998 0.2753295099999999 0.1175178100000001 F
atom_frac 0.6048259499999999 0.2085795600000000 0.1855383300000001 F
atom_frac 0.6044468700000000 0.3967290500000000 0.2097654700000000 F
atom_frac 0.3924176700000000 0.3027693000000000 0.2453776700000000 F
atom_frac 0.3929852800000000 0.0900648200000000 0.3622378200000000 F
atom_frac 0.2590662400000000 0.0223499200000000 0.4304884500000000 F
atom_frac 0.2585050400000001 0.2363071600000000 0.3111416100000000 F
atom_frac 0.2614045400000001 0.6440333200000000 0.9634350600000000 F
atom_frac 0.2615914899999999 0.6179615000000001 0.7745028700000000 F
atom_frac 0.3954222599999999 0.6859771799999999 0.7078908200000001 F
atom_frac 0.3952408200000001 0.7100420600000001 0.8962887299999999 F
atom_frac 0.6073105800000002 0.7451463700000001 0.8027159099999999 F
atom_frac 0.6072844400000003 0.8625853000000001 0.5897789400000000 F
atom_frac 0.7411785599999999 0.9306450300000000 0.5222707000000000 F
atom_frac 0.7412105900000000 0.8107180699999998 0.7364597000000003 F
