#=======================================================
# FHI-aims file: ./geometry.in
# Created using the Atomic Simulation Environment (ASE)
# Fri Jan 14 15:05:36 2022
#=======================================================
lattice_vector 8.1050014709999996 0.0130178430000000 0.6373603820000000 
lattice_vector 0.1515910180000000 9.5459011010000001 1.8232952970000000 
lattice_vector -0.0830951370000000 0.0896786310000000 12.2587341890000001 
atom_frac 0.5594354334852341 0.3652772053176108 0.6409250487626039 Cu
atom_frac 0.4405674988045972 0.6347187965393247 0.3590811144243061 Cu
atom_frac 0.4905523013585408 0.1487720571951385 0.9495096170737440 Cu
atom_frac 0.5094529825599566 0.8512271357533764 0.0504910547519657 Cu
atom_frac 0.5671639853647221 0.5877172004695267 0.9749979038434660 H
atom_frac 0.4328375225669491 0.4122841245571323 0.0249993842117107 H
atom_frac 0.2787665051678944 0.7410292024271499 0.8176929248573614 H
atom_frac 0.7212338121638453 0.2589720852720204 0.1823085093763268 H
atom_frac 0.9777003275037400 0.3836905190194670 0.8056624178874260 H
atom_frac 0.0223025453393362 0.6163075963096674 0.1943418025544545 H
atom_frac 0.7895739405086032 0.4707838968103958 0.8795287197251797 H
atom_frac 0.2104300466115561 0.5292184443822663 0.1204715512719687 H
atom_frac 0.5200215647669992 0.0831244565626648 0.5674997368291059 H
atom_frac 0.4799762860713698 0.9168747735977478 0.4324980529455758 H
atom_frac 0.0186779945321902 0.9632100106824101 0.6759620508946966 H
atom_frac 0.9813185850502321 0.0367923446771314 0.3240377873857199 H
atom_frac 0.7780157908084889 0.9329122559751684 0.6688748530735467 H
atom_frac 0.2219719992965281 0.0670933386121177 0.3311159872139058 H
atom_frac 0.9791460490275909 0.1871937845358147 0.7447735967208329 H
atom_frac 0.0208593198800671 0.8128032718954828 0.2552314671842097 H
atom_frac 0.5091533669809393 0.8395383961018155 0.7528150348950433 H
atom_frac 0.4908369871495566 0.1604640184337711 0.2471794080453762 H
atom_frac 0.2902750770541330 0.9076532425910810 0.5834517795400558 H
atom_frac 0.7097202565104084 0.0923480955215936 0.4165450118437163 H
atom_frac 0.1060435168531129 0.8115449960815938 0.9137212469278707 H
atom_frac 0.8939555714890091 0.1884552590073625 0.0862787732986945 H
atom_frac 0.8763369469902641 0.5392585156755061 0.5581432738256781 H
atom_frac 0.1236646078452281 0.4607437969522082 0.4418603908598869 H
atom_frac 0.9727742703817698 0.7764753083822099 0.5705938585157000 H
atom_frac 0.0272197536893160 0.2235302193473672 0.4294031935565314 H
atom_frac 0.8659944368540878 0.9110857284732251 0.0081665145425518 H
atom_frac 0.1340058125167616 0.0889176803798151 0.9918321605013317 H
atom_frac 0.5473652437680201 0.6430777366086671 0.6952382142376622 C
atom_frac 0.4526338701165002 0.3569224954352705 0.3047642553232137 C
atom_frac 0.6895083113591199 0.6330740082431349 0.9596736233952895 C
atom_frac 0.3104920143345780 0.3669252120738662 0.0403248549148216 C
atom_frac 0.3867713120430309 0.5800527720003075 0.7360580349075717 C
atom_frac 0.6132303318104279 0.4199443107186127 0.2639447715271927 C
atom_frac 0.2597688051047911 0.6402748850819718 0.7945888472832721 C
atom_frac 0.7402315588264159 0.3597232708172626 0.2054114188441147 C
atom_frac 0.9718126356487032 0.6314453792713977 0.8839781962722029 C
atom_frac 0.0281852110086831 0.3685548845800994 0.1160210714642744 C
atom_frac 0.1090690323195602 0.5700711862089917 0.8224589465504053 C
atom_frac 0.8909300136040628 0.4299311669888156 0.1775407638206659 C
atom_frac 0.2262009552469664 0.3854155307025879 0.7324689490609373 C
atom_frac 0.7738031719759634 0.6145815344912504 0.2675353623540104 C
atom_frac 0.0925085428867263 0.4411968879593999 0.7884139063536111 C
atom_frac 0.9074918890053779 0.5587991467859654 0.2115891189635732 C
atom_frac 0.8163110747517095 0.5686708150723732 0.9053219253959668 C
atom_frac 0.1836917131022133 0.4313294367739786 0.0946779029665805 C
atom_frac 0.3978757061114492 0.1004207351598438 0.6057642672837673 C
atom_frac 0.6021234585535212 0.8995753313930736 0.3942355562090185 C
atom_frac 0.1196936883747028 0.0361525634388968 0.6660789817507220 C
atom_frac 0.8803005394268908 0.9638445411285728 0.3339225755225498 C
atom_frac 0.7448071797351474 0.8272843224437381 0.6619179168021460 C
atom_frac 0.2551868187935399 0.1727212283308504 0.3380766859357749 C
atom_frac 0.0978273983835294 0.1609168364412739 0.7056340114354283 C
atom_frac 0.9021754404030133 0.8390813096145567 0.2943669432273807 C
atom_frac 0.2306559233603735 0.2512490949508006 0.6933462809727899 C
atom_frac 0.7693482165576597 0.7487469288702897 0.3066573689251372 C
atom_frac 0.5917777465820678 0.7763986116166562 0.7074368559196883 C
atom_frac 0.4082126457859375 0.2236027385011639 0.2925593748380065 C
atom_frac 0.2711590344562964 0.0046325635328159 0.6153985661654318 C
atom_frac 0.7288412869042489 0.9953656307747849 0.3845976177381232 C
atom_frac 0.9894624147304824 0.7564734280614402 0.9235065577848476 C
atom_frac 0.0105378940871290 0.2435278673194006 0.0764940600040660 C
atom_frac 0.7992418759867802 0.6100443182573517 0.5998403948401716 C
atom_frac 0.2007584116215853 0.3899580261779222 0.4001600680209946 C
atom_frac 0.8511873443355213 0.7429161326038950 0.6077863589785863 C
atom_frac 0.1488103622190948 0.2570894072464255 0.3922088683400842 C
atom_frac 0.8561484378997689 0.8136933129749339 0.9775896539609619 C
atom_frac 0.1438530573367913 0.1863090534244876 0.0224082956112284 C
atom_frac 0.3685568425336143 0.4544752799981496 0.7090441554096287 N
atom_frac 0.6314473100795368 0.5455197024501857 0.2909588329712776 N
atom_frac 0.7058291357102745 0.7546562293761454 0.9953084168765258 N
atom_frac 0.2941735968778686 0.2453451022513279 0.0046879907792103 N
atom_frac 0.6508767718898838 0.5617231053091060 0.6416665631730041 N
atom_frac 0.3491248465733462 0.4382760601553246 0.3583375662958019 N
atom_frac 0.3781871954171621 0.2205050026591096 0.6430503026504653 N
atom_frac 0.6218144696455427 0.7794910310053850 0.3569526587120463 N
atom_frac 0.3682999345514518 0.9546938614712770 0.8943306230724845 Cl
atom_frac 0.6317052772251727 0.0453084863221989 0.1056687675252164 Cl
atom_frac 0.6877435601947752 0.2485876384509781 0.8214225607984744 Cl
atom_frac 0.3122629951318316 0.7514104889989000 0.1785798348898453 Cl
atom_frac 0.7496662709777127 0.2918273044416182 0.5212654886641134 Cl
atom_frac 0.2503341184958998 0.7081708284125980 0.4787372267975769 Cl
