#=======================================================
# FHI-aims file: ./geometry.in
# Created using the Atomic Simulation Environment (ASE)
# Wed Feb  9 14:46:23 2022
#=======================================================
lattice_vector 8.0707523400000003 0.2846119300000000 3.0750875299999998 
lattice_vector 1.2586292200000000 9.5209907200000004 2.8770510900000001 
lattice_vector 0.2247141500000000 0.5059599100000000 11.1196718299999997 
atom_frac 0.8560956400000000 0.1672373600000000 0.0715923900000000 Cd
atom_frac 0.1439048200000000 0.8327613000000001 0.9284084700000002 Cd
atom_frac 0.0349378900000000 0.3550954700000000 0.1364922500000000 H
atom_frac 0.9650622799999999 0.6449037700000001 0.8635077100000000 H
atom_frac 0.4938915500000001 0.2491460200000001 0.3297260200000000 H
atom_frac 0.5061082000000001 0.7508544699999999 0.6702741400000001 H
atom_frac 0.2276312000000000 0.3316570300000000 0.2645325900000000 H
atom_frac 0.7723680800000000 0.6683432300000000 0.7354677900000000 H
atom_frac 0.9903849499999999 0.9216703000000001 0.2882051000000001 H
atom_frac 0.0096163200000000 0.0783287900000000 0.7117954799999999 H
atom_frac 0.1819620700000001 0.8824169799999998 0.4208276300000001 H
atom_frac 0.8180386600000000 0.1175829900000000 0.5791731800000001 H
atom_frac 0.2786503600000000 0.0335208200000000 0.5367666500000001 H
atom_frac 0.7213492000000000 0.9664802000000002 0.4632340900000000 H
atom_frac 0.4498709400000000 0.0038061900000000 0.3910426700000000 H
atom_frac 0.5501289600000000 0.9961944200000001 0.6089582999999998 H
atom_frac 0.1863573900000000 0.5252519500000000 0.5795977500000001 H
atom_frac 0.8136414499999999 0.4747494300000001 0.4204022400000001 H
atom_frac 0.3314149399999999 0.7137149200000001 0.5774413299999999 H
atom_frac 0.6685838300000001 0.2862864500000000 0.4225588300000001 H
atom_frac 0.1491652600000000 0.3677580600000000 0.8853760799999999 H
atom_frac 0.8508342400000000 0.6322430900000000 0.1146253300000000 H
atom_frac 0.6172579100000000 0.4403795700000001 0.8932853599999999 H
atom_frac 0.3827446500000000 0.5596190500000000 0.1067136500000000 H
atom_frac 0.5716490900000000 0.0305461100000000 0.8649747100000000 H
atom_frac 0.4283486000000001 0.9694536400000002 0.1350257800000000 H
atom_frac 0.0693383700000000 0.2517658900000000 0.2022222900000000 C
atom_frac 0.9306620100000002 0.7482335200000000 0.7977778200000000 C
atom_frac 0.1768070200000000 0.2382509200000000 0.2731139600000000 C
atom_frac 0.8231929000000002 0.7617490099999999 0.7268863900000000 C
atom_frac 0.0448674200000000 0.0105687200000000 0.2861343500000000 C
atom_frac 0.9551335700000000 0.9894306000000000 0.7138660700000001 C
atom_frac 0.1515339900000000 0.9898284700000001 0.3596928800000000 C
atom_frac 0.8484666000000000 0.0101713400000000 0.6403077400000001 C
atom_frac 0.2207025800000000 0.1049057900000000 0.3534001400000000 C
atom_frac 0.7792975100000000 0.8950943500000001 0.6466004000000000 C
atom_frac 0.3410354700000000 0.0814053800000000 0.4290320200000000 C
atom_frac 0.6589642600000000 0.9185952600000000 0.5709686700000000 C
atom_frac 0.3265440400000000 0.2818217100000001 0.5111439300000000 C
atom_frac 0.6734549299999999 0.7181799700000001 0.4888555900000001 C
atom_frac 0.4181446900000000 0.3957386800000001 0.5003090500000000 C
atom_frac 0.5818541699999999 0.6042628300000000 0.4996908400000001 C
atom_frac 0.3241435700000000 0.5156931800000000 0.5443285000000001 C
atom_frac 0.6758552700000000 0.4843082700000000 0.4556715300000000 C
atom_frac 0.4053660500000000 0.6192361000000000 0.5438352100000000 C
atom_frac 0.5946327800000000 0.3807653000000000 0.4561649000000000 C
atom_frac 0.2526693300000001 0.0948451400000000 0.8618281600000000 C
atom_frac 0.7473302600000001 0.9051566700000000 0.1381691600000000 C
atom_frac 0.3527089600000000 0.1912315800000000 0.8701899000000000 C
atom_frac 0.6472888700000000 0.8087687300000000 0.1298122000000000 C
atom_frac 0.2803140400000000 0.3291821000000000 0.8826864500000000 C
atom_frac 0.7196853400000000 0.6708184300000000 0.1173151300000000 C
atom_frac 0.3777558100000000 0.4198124399999999 0.8880298300000000 C
atom_frac 0.6222452300000000 0.5801872600000001 0.1119710999999999 C
atom_frac 0.5402198499999999 0.3706372600000000 0.8906261400000000 C
atom_frac 0.4597814900000001 0.6293617800000000 0.1093738100000001 C
atom_frac 0.6112422900000001 0.2241304100000000 0.8935959300000000 C
atom_frac 0.3887573400000000 0.7758682400000000 0.1064048400000000 C
atom_frac 0.5144082900000000 0.1379807700000000 0.8757790400000000 C
atom_frac 0.4855897500000000 0.8620187099999996 0.1242224800000001 C
atom_frac 0.2984475700000000 0.5665805700000000 0.9011864300000000 C
atom_frac 0.7015544400000000 0.4334188299999999 0.0988151300000000 C
atom_frac 1.0049138300000000 0.1399289700000000 0.2083180199999999 N
atom_frac -0.0049128300000000 0.8600701200000000 0.7916820900000001 N
atom_frac 0.4033512600000000 0.2063972900000000 0.4181128399999999 N
atom_frac 0.5966483200000000 0.7936036399999999 0.5818874000000001 N
atom_frac 0.0939350700000000 0.1191640500000000 0.9054341200000000 O
atom_frac 0.9060642600000000 0.8808371400000002 0.0945647600000000 O
atom_frac 0.3339440100000000 0.9878821400000000 0.8171207499999998 O
atom_frac 0.6660560400000000 0.0121177200000000 0.1828804400000000 O
atom_frac 0.3807851500000000 0.6702066800000001 0.8340734100000000 O
atom_frac 0.6192153400000000 0.3297936600000000 0.1659260400000000 O
atom_frac 0.1510852200000000 0.5798110700000000 0.9838826600000000 O
atom_frac 0.8489141000000000 0.4201893500000001 0.0161144800000000 O
atom_frac 0.7547677900000000 0.1712188300000000 0.9079778600000000 O
atom_frac 0.2452317500000000 0.8287792600000000 0.0920228900000000 O
atom_frac 0.1934198700000000 0.2564417500000000 0.6032526200000000 O
atom_frac 0.8065785800000000 0.7435605600000000 0.3967464300000000 O
