#=======================================================
# FHI-aims file: ./geometry.in
# Created using the Atomic Simulation Environment (ASE)
# Tue Nov 30 12:20:15 2021
#=======================================================
lattice_vector 9.5745320580000008 -0.0000590280000000 0.0001576030000000 
lattice_vector -4.7873818559999997 8.6416888259999993 -1.4059252840000001 
lattice_vector 0.0003217870000000 -0.0141434800000000 19.5970220879999992 
atom_frac 0.9224512608961816 0.8537443043393509 0.5308569473331275 H
atom_frac 0.9312217847790408 0.8536655087229620 0.0308778117781472 H
atom_frac 0.0775348427747318 0.1462387632358784 0.4691426336984180 H
atom_frac 0.0687792648131023 0.1463349170402566 0.9691219938773231 H
atom_frac 0.8617094710107409 0.7149266232806396 0.4095559810993878 H
atom_frac 0.8531690711020234 0.7149371846957707 0.9095582850490943 H
atom_frac 0.1382734993370889 0.2850564442732236 0.5904435999558260 H
atom_frac 0.1468302428754029 0.2850597699395507 0.0904417818770398 H
atom_frac 0.5805308490219758 0.5728822858474983 0.3574919784019244 H
atom_frac 0.9923554938662276 0.5730032587105355 0.8574467740852327 H
atom_frac 0.4194552243274856 0.4271216092591671 0.6425065454260307 H
atom_frac 0.0076510049374078 0.4270017988640261 0.1425548946656434 H
atom_frac 0.3623003474230373 0.5736190905990810 0.4267902768940672 H
atom_frac 0.2112402916013637 0.5735880772917314 0.9267315517025665 H
atom_frac 0.6376900004310356 0.4263975308486253 0.5732066085018417 H
atom_frac 0.7887667842720559 0.4264181342628461 0.0732681587058082 H
atom_frac 0.4249530786764666 0.7154145976625655 0.5469128140687972 H
atom_frac 0.2903027201318054 0.7152109210753963 0.0468830090932926 H
atom_frac 0.5750408678694968 0.2846008656573177 0.4530834779304058 H
atom_frac 0.7097081806388774 0.2847987624565890 0.9531169503701594 H
atom_frac 0.7565554921698876 0.5309667641746428 0.7950585702938116 H
atom_frac 0.7742802223661371 0.5308926329858038 0.2950638786317938 H
atom_frac 0.2434389528697380 0.4690267193114154 0.2049417579266546 H
atom_frac 0.2257181580702722 0.4691066321010952 0.7049338026497054 H
atom_frac 0.6327281451594758 0.2869518428706783 0.8457031408602020 H
atom_frac 0.6541186430465302 0.2868522280901331 0.3456775054272825 H
atom_frac 0.3672707070535283 0.7130462774311397 0.1543021125127453 H
atom_frac 0.3458814839602198 0.7131400855887478 0.6543150845992758 H
atom_frac 0.3647607837704356 0.1946764551919387 0.8909982845736553 H
atom_frac 0.8297603253396062 0.1945473866663434 0.3909220637060359 H
atom_frac 0.6352438599657617 0.8053332483434800 0.1090139231338654 H
atom_frac 0.1702432834517182 0.8054414458971590 0.6090646634533812 H
atom_frac 0.2119154997128235 0.3328968383334256 0.8780285395501224 H
atom_frac 0.1208442370037375 0.3327640677516114 0.3780111252505308 H
atom_frac 0.7880874048042726 0.6671093865567810 0.1219793363542934 H
atom_frac 0.8791609847457024 0.6672363463464990 0.6219815355919495 H
atom_frac 0.3386216202170971 0.5793312661136055 0.8279815695566058 H
atom_frac 0.2405995571920698 0.5792296898546069 0.3279628771217063 H
atom_frac 0.6613757193826688 0.4206680064834813 0.1720207048065633 H
atom_frac 0.7594048475231786 0.4207753568473720 0.6720321572050524 H
atom_frac 0.0743486290286057 0.8636410712045475 0.8274488352324597 H
atom_frac 0.7891980990567121 0.8635508923812554 0.3274662662936478 H
atom_frac 0.9256518297347328 0.1363686172677632 0.1725541863590720 H
atom_frac 0.2107918255065968 0.1364356388188099 0.6725284603776771 H
atom_frac 0.3381323246354881 0.8629528849037200 0.8272605866503184 H
atom_frac 0.5247236594351179 0.8628116442612778 0.3272724794192571 H
atom_frac 0.6618675554561122 0.1370556462475392 0.1727423519175844 H
atom_frac 0.4752634842714656 0.1371714141332490 0.6727214878475678 H
atom_frac 0.9018179698698672 0.0000556471648281 0.7500030382441880 Rh
atom_frac 0.0981688092132844 0.9999413040440150 0.2499949874104885 Rh
atom_frac 0.6488253026881167 0.0000793756572364 0.7500021826494392 Rh
atom_frac 0.3511782999534248 0.9999198894652607 0.2499954985926180 Rh
atom_frac 0.7143333478657894 0.8732699534149473 0.6190154642736874 C
atom_frac 0.1588296527516277 0.8730738474218710 0.1190043851758418 C
atom_frac 0.2856595853615644 0.1267246840368941 0.3809829056200585 C
atom_frac 0.8411715101434468 0.1269288938115879 0.8809960968762880 C
atom_frac 0.6772846204668567 0.7926501811427186 0.5462753545347568 C
atom_frac 0.1151921575091350 0.7924343633522710 0.0462675068000777 C
atom_frac 0.3227007617089157 0.2073502428431624 0.4537234305559750 C
atom_frac 0.8848100486255106 0.2075683753825359 0.9537314442195709 C
atom_frac 0.8002771882723038 0.7921893398215616 0.5074088732376154 C
atom_frac 0.9917665078880377 0.7920388907430294 0.0074302716186239 C
atom_frac 0.1997078563975876 0.2078041427651485 0.4925909447123260 C
atom_frac 0.0082356978461178 0.2079638471565204 0.9925681690594887 C
atom_frac 0.7657229648787833 0.7145931996867178 0.4395572923425065 C
atom_frac 0.9487261393991490 0.7144951628957159 0.9395752686322679 C
atom_frac 0.2342602304729695 0.2853944954665976 0.5604416001399102 C
atom_frac 0.0512780423146140 0.2855052603830970 0.0604230059749398 C
atom_frac 0.6080462983480928 0.6355458818284417 0.4103554182044958 C
atom_frac 0.0273804086295042 0.6355096848662425 0.9103365163766316 C
atom_frac 0.3919396628999010 0.3644557003137550 0.5896439602513938 C
atom_frac 0.9726244654594184 0.3644942120391121 0.0896630279923869 C
atom_frac 0.4854925190732972 0.6360675268796643 0.4488981470649449 C
atom_frac 0.1504097858930963 0.6359276826607855 0.9488662624002089 C
atom_frac 0.5144948237211082 0.3639409958335662 0.5510996881823191 C
atom_frac 0.8495971774783655 0.3640762150940730 0.0511337922945643 C
atom_frac 0.5198279837036992 0.7150079108859373 0.5165058103354880 C
atom_frac 0.1949882226314444 0.7147636004522867 0.0164817636975414 C
atom_frac 0.4801613346698303 0.2849982963713060 0.4834913484993422 C
atom_frac 0.8050193182102915 0.2852414521178586 0.9835168429962592 C
atom_frac 0.6346607293747866 0.7233227763579393 0.7857253865508725 C
atom_frac 0.0885393224608819 0.7232459471853545 0.2857284022282301 C
atom_frac 0.3653364965215502 0.2766741799336501 0.2142757010741008 C
atom_frac 0.9114563904217332 0.2767521605662465 0.7142691960454287 C
atom_frac 0.5563917715469060 0.5714650896382947 0.8103123759378335 C
atom_frac 0.0149464567177731 0.5713697510523943 0.3102992279441565 C
atom_frac 0.4436067261973022 0.4285364992714095 0.1896910851556370 C
atom_frac 0.9850475189481784 0.4286248822302808 0.6896965902340497 C
atom_frac 0.6385054213937807 0.4879666497253579 0.8143861831946567 C
atom_frac 0.8493382325970344 0.4879007715805769 0.3143859380741035 C
atom_frac 0.3614914532376617 0.5120337818561682 0.1856171948830720 C
atom_frac 0.1506620081131302 0.5120938584038013 0.6856078386906503 C
atom_frac 0.5694068735107152 0.3524506142381654 0.8431393002207699 C
atom_frac 0.7829371155528264 0.3523777654787779 0.3431109781156536 C
atom_frac 0.4305920916047300 0.6475498206986289 0.1568661192073081 C
atom_frac 0.2170650987340252 0.6476145448733205 0.6568795705290000 C
atom_frac 0.4178471499357742 0.2995938461273440 0.8676879901895449 C
atom_frac 0.8816404599183583 0.2994879432828768 0.3676302802630786 C
atom_frac 0.5821514631137956 0.7004100624288795 0.1323186990082306 C
atom_frac 0.1183585069415116 0.7005020499071078 0.6323585713255255 C
atom_frac 0.3325621784429770 0.3786922431400298 0.8612375140926717 C
atom_frac 0.0460423905846810 0.3786078978953213 0.3612210634945825 C
atom_frac 0.6674396808321248 0.6213139800725429 0.1387693411365731 C
atom_frac 0.9539632969340490 0.6213913588888575 0.6387715143163889 C
atom_frac 0.4016570472596186 0.5143763952855096 0.8326832211543620 C
atom_frac 0.1126103001416396 0.5142827642514617 0.3326600013201643 C
atom_frac 0.5983419174553434 0.4856240388160344 0.1673216879321870 C
atom_frac 0.8873885436611388 0.4857153385099621 0.6673345348806379 C
atom_frac 0.1644129652005688 0.9246750049938085 0.7928708753429206 C
atom_frac 0.7601317804002221 0.9245597027316990 0.2928828695408612 C
atom_frac 0.8355840207313745 0.0753277378816790 0.2071306274238225 C
atom_frac 0.2398610375217700 0.0754326150736162 0.7071122722485725 C
atom_frac 0.3093330717998342 0.9245104457982903 0.7928267769195261 C
atom_frac 0.6150664718455801 0.9243607497713028 0.2928314918231152 C
atom_frac 0.6906614731841785 0.0754957706823731 0.2071759956326957 C
atom_frac 0.3849227481855023 0.0756327278323496 0.7071652640460897 C
atom_frac 0.1289536401105167 0.0000526588085492 0.7499886281125187 N
atom_frac 0.8710409162296033 0.9999431359714637 0.2500098247969619 N
atom_frac 0.4203841314041412 0.0000674030700765 0.7500036711639100 N
atom_frac 0.5796105390398907 0.9999307088506839 0.2499964788252882 N
atom_frac 0.8512346487660593 0.9102411247756095 0.6476701816086816 O
atom_frac 0.0589240582864292 0.9101024173238553 0.1476590014514869 O
atom_frac 0.1487534167249507 0.0897500440327406 0.3523299806039902 O
atom_frac 0.9410761718686091 0.0899026360316881 0.8523401156390664 O
atom_frac 0.6072801155157349 0.8985436438465583 0.6482647956126186 O
atom_frac 0.2911369275944081 0.8983213959326264 0.1482509366270365 O
atom_frac 0.3927147803326960 0.1014590965089184 0.3517351761453044 O
atom_frac 0.7088612302409985 0.1016732465663566 0.8517504952764484 O
atom_frac 0.7834790568492024 0.7815889494213195 0.7750739943461866 O
atom_frac 0.9979888011057128 0.7814906755979791 0.2750617001807214 O
atom_frac 0.2165161942689906 0.2184103239967782 0.2249287903742854 O
atom_frac 0.0020079542155003 0.2185074279844628 0.7249333463773980 O
atom_frac 0.5477879146796879 0.7869527703116573 0.7783534863399739 O
atom_frac 0.2390420155567058 0.7868486642828290 0.2783755987803148 O
atom_frac 0.4522076873029164 0.2130430269812464 0.2216464975862067 O
atom_frac 0.7609539247327461 0.2131540760797677 0.7216243729697213 O
atom_frac 0.3195523074472319 0.9152178100153562 0.5075596410719996 O
atom_frac 0.5956290560239736 0.9152438791088856 0.0076108827693062 O
atom_frac 0.6804681851448962 0.0847316805636922 0.4924283457404500 O
atom_frac 0.4044576284942352 0.0847878641261630 0.9924335223424025 O
atom_frac 0.2343418897475829 0.8301051596964797 0.4550966396507974 O
atom_frac 0.5958465886273884 0.8301634889561242 0.9551662414683477 O
atom_frac 0.7656276725767199 0.1699137561976158 0.5448881637612787 O
atom_frac 0.4042165355116296 0.1698670884486404 0.0448729773779917 O
