#=======================================================
# FHI-aims file: ./geometry.in
# Created using the Atomic Simulation Environment (ASE)
# Wed Feb  9 14:46:29 2022
#=======================================================
lattice_vector 4.7132021499999999 -0.1937986500000000 -0.0882329800000000 
lattice_vector -1.9397101999999999 10.9799428399999996 -1.3871531800000001 
lattice_vector 0.1738080500000000 -0.8967436700000000 11.2087491600000000 
atom_frac 0.6568079800000001 0.9999783300000001 0.7499669500000000 Cu
    initial_moment         1.000000
atom_frac 0.3433621700000000 0.0000105500000000 0.2500153600000000 Cu
    initial_moment         1.000000
atom_frac 0.0418433600000000 0.3783255600000001 0.8923717900000001 H
atom_frac 0.6636483200000000 0.6216384900000000 0.6076260600000001 H
atom_frac 0.9583271600000001 0.6216633800000000 0.1076105600000000 H
atom_frac 0.3365217400000000 0.3783503600000000 0.3923562299999999 H
atom_frac 0.5941688600000001 0.8312227600000001 0.9229380700000001 C
atom_frac 0.7625573700000001 0.1687433000000000 0.5770175200000000 C
atom_frac 0.4060013900000000 0.1687661100000000 0.0770442000000000 C
atom_frac 0.2376126100000001 0.8312455700000001 0.4229648100000000 C
atom_frac 0.6974589000000000 0.7626004799999999 -0.0037847500000000 C
atom_frac 0.9345372400000002 0.2373860300000000 0.5037436100000000 C
atom_frac 0.3027116200000000 0.2373884400000000 1.0037669899999999 C
atom_frac 0.0656327500000000 0.7626028200000001 0.4962387000000000 C
atom_frac 0.5993457000000000 0.6289661000000000 0.9912584900000001 C
atom_frac 0.9702047500000001 0.3710184000000000 0.5087138800000000 C
atom_frac 0.4008249100000000 0.3710228300000001 0.0087238100000000 C
atom_frac 0.0299652900000000 0.6289704400000000 0.4912684200000000 C
atom_frac 0.3426105300000001 0.5536841700000000 0.9312184300000000 C
atom_frac 0.7888504100000000 0.4462926900000000 0.5687635500000000 C
atom_frac 0.6575600500000000 0.4463047600000000 0.0687638800000000 C
atom_frac 0.2113196300000001 0.5536961500000002 0.4312187400000000 C
atom_frac 0.2447274900000000 0.4306886800000000 0.9414322100000000 C
atom_frac 0.8141193100000002 0.5692913800000001 0.5585620100000001 C
atom_frac 0.7554430500000001 0.5693002500000000 0.0585501100000000 C
atom_frac 0.1860507300000000 0.4306974599999999 0.4414202900000000 C
atom_frac 0.9552595600000000 0.8211997700000000 0.0617010000000000 C
atom_frac 1.1336688699999999 0.1787918700000000 0.4382581600000001 C
atom_frac 0.0449110300000000 0.1787891800000000 0.9382811600000001 C
atom_frac -0.1334989700000000 0.8211969300000002 0.5617241500000000 C
atom_frac 0.1122922400000000 0.6140064300000000 0.8347482199999999 Br
atom_frac 0.4981218400000000 0.3859857400000001 0.6652527200000000 Br
atom_frac 0.8878782900000001 0.3859824200000000 0.1652340500000000 Br
atom_frac 0.5020481900000000 0.6140030900000000 0.3347295500000000 Br
atom_frac 0.5363083900000001 0.8999519300000000 0.8652765500000000 N
atom_frac 0.6359790600000002 0.0999790500000000 0.6346744800000000 N
atom_frac 0.4638617600000001 0.1000369500000000 0.1347057400000000 N
atom_frac 0.3641909500000001 0.9000098000000000 0.3653078400000000 N
atom_frac 1.1860839700000001 0.8585743600000000 0.1124929600000000 N
atom_frac 1.3270692600000000 0.1413865900000000 0.3875004500000001 N
atom_frac -0.1859134400000000 0.1414144300000000 0.8874892800000002 N
atom_frac -0.3268992999999999 0.8586022700000001 0.6124818500000000 N
