#=======================================================
# FHI-aims file: ./geometry.in
# Created using the Atomic Simulation Environment (ASE)
# Wed Feb  9 14:46:30 2022
#=======================================================
lattice_vector 8.0263089300000008 0.0629570000000000 -0.1828242200000000 
lattice_vector -3.6947302799999999 9.1118566399999992 -4.0562031699999999 
lattice_vector 2.7567766699999998 -2.1084042699999999 14.9740740100000007 
atom_frac 0.5171542900000001 0.6485907100000001 0.4954607300000000 Zn
atom_frac 0.1112656300000000 0.3425173600000000 0.4672600800000000 Zn
atom_frac 0.4801746800000000 0.3378405600000001 0.4972795500000000 Zn
atom_frac 0.8950607200000000 0.6497529000000000 0.5284560400000000 Zn
atom_frac 0.3725594800000001 0.3555934800000001 0.3565879800000000 H
atom_frac 0.7942124000000000 -0.0107872900000000 0.3890712600000000 H
atom_frac 0.6810849900000000 0.9235967300000001 0.4662702600000000 H
atom_frac 0.2539435800000001 0.6622898200000001 0.4345110200000001 H
atom_frac 0.3913706200000000 0.8442391199999999 0.4910617899999999 H
atom_frac 0.2039082500000000 0.4928410100000000 0.2584039600000000 H
atom_frac 0.2669510500000000 0.4478244199999999 0.0803587200000000 H
atom_frac 0.7120811100000000 0.8693382899999998 0.2126732900000000 H
atom_frac 0.2135524000000000 0.8233541200000000 0.2613510100000000 H
atom_frac 0.9844780700000000 0.8118953400000000 0.2620120300000001 H
atom_frac 0.0793189000000001 0.8150168500000001 0.3615662700000000 H
atom_frac 0.7833804400000000 0.0987688900000000 0.1779246600000000 H
atom_frac 0.9617869500000000 0.1183913700000000 0.2472205700000000 H
atom_frac 0.9685674400000002 0.2738571100000001 0.2321335300000000 H
atom_frac 0.2387790800000000 0.4349375000000000 0.8017679200000000 H
atom_frac 0.0364127800000000 0.4711106400000000 0.7978695200000000 H
atom_frac 0.2457972200000000 0.6207003000000000 0.8290213199999998 H
atom_frac 0.5213476499999999 0.6409146999999998 0.0588153100000000 H
atom_frac 0.6255489000000000 0.6204219600000001 0.6318251299999998 H
atom_frac 0.2050023199999999 0.9948579900000000 0.6004688000000001 H
atom_frac 0.3183916500000001 0.0589464700000000 0.5220899600000000 H
atom_frac 0.7455406900000000 0.3212581600000000 0.5544546400000000 H
atom_frac 0.6079112000000000 0.1395987700000000 0.4978577500000000 H
atom_frac 0.7931588800000000 0.4933062600000001 0.7305273000000001 H
atom_frac 0.7267437900000000 0.5417638200000000 0.9089604700000000 H
atom_frac 0.2858341000000000 0.1163619700000000 0.7764817099999999 H
atom_frac 0.7729587000000000 0.1585368500000000 0.7318119800000000 H
atom_frac 0.0008092000000000 0.1746946300000000 0.7433166599999999 H
atom_frac 0.9257865400000000 0.1780827900000000 0.6411814800000001 H
atom_frac 0.2431417900000001 0.8808962400000001 0.8048675100000000 H
atom_frac 0.0582823399999998 0.8669426699999999 0.7430236700000000 H
atom_frac 0.0511310700000000 0.7112401900000000 0.7580953600000000 H
atom_frac 0.7625696900000000 0.5441241500000000 0.1893328300000000 H
atom_frac 0.9682493300000000 0.5149134300000000 0.1961017000000000 H
atom_frac 0.7610258300000000 0.3620422600000000 0.1667364600000000 H
atom_frac 0.4725418300000001 0.3494099800000000 0.9311946399999999 H
atom_frac 0.5661673600000001 0.8109799300000000 0.3217314200000000 C
atom_frac 0.4202079900000000 0.7035631800000000 0.3334399400000000 C
atom_frac 0.3166432800000000 0.5738376400000000 0.2464383800000000 C
atom_frac 0.3515618600000001 0.5492077100000001 0.1475282900000000 C
atom_frac 0.4931363000000000 0.6569181900000000 0.1356686200000000 C
atom_frac 0.5992034200000000 0.7855376699999999 0.2219492199999999 C
atom_frac 0.1555196600000000 0.0380568200000000 0.3755605500000000 C
atom_frac 0.1034826700000001 0.8619067400000001 0.3106863700000000 C
atom_frac 0.7931528700000000 0.2566542100000000 0.3455041300000001 C
atom_frac 0.8795773299999999 0.1801948300000000 0.2436008000000000 C
atom_frac 0.2078645400000000 0.4386731200000000 0.6681043500000000 C
atom_frac 0.1772033700000000 0.4933078000000000 0.7805443100000000 C
atom_frac 0.4317548000000000 0.1742552900000000 0.6673522700000000 C
atom_frac 0.5776710600000001 0.2815034900000000 0.6554772100000000 C
atom_frac 0.6800483500000001 0.4125096800000000 0.7424842200000000 C
atom_frac 0.6432508100000000 0.4392731000000001 0.8417816200000000 C
atom_frac 0.5018272400000000 0.3316536300000000 0.8539130400000001 C
atom_frac 0.3976927000000000 0.2011234200000000 0.7674959999999998 C
atom_frac 0.8449551300000000 0.9496603900000000 0.6193278100000000 C
atom_frac 0.8900166800000001 0.1253952800000000 0.6889792800000000 C
atom_frac 0.2180575600000000 0.7196434700000000 0.6382581100000000 C
atom_frac 0.1393163600000001 0.8014349100000000 0.7431542900000000 C
atom_frac 0.7965424200000000 0.5485341300000000 0.3259948300000000 C
atom_frac 0.8271893600000000 0.4903195000000001 0.2128720500000001 C
atom_frac 0.6709736400000000 0.9420595099999999 0.4082360600000000 N
atom_frac 0.3821719500000000 0.7260077100000000 0.4337546100000000 N
atom_frac 0.3278137700000001 0.0422495600000000 0.5810869900000000 N
atom_frac 0.6169067900000000 0.2581808899999999 0.5548267500000000 N
atom_frac 0.4758388700000001 0.1550960900000000 0.2102730100000000 Cl
atom_frac 0.1325763800000000 0.8023307499999999 1.0478192799999999 Cl
atom_frac 0.3210947400000000 1.0833160600000002 1.0820100399999999 Cl
atom_frac 0.9941647000000001 0.5850088300000000 0.0254782700000000 Cl
atom_frac 0.3505645800000001 0.4121308500000000 0.4314412100000000 O
atom_frac 0.0488630200000000 0.1056133200000000 0.3771593100000000 O
atom_frac 0.3009497300000000 0.1109077300000000 0.4267820100000000 O
atom_frac 0.8828751300000000 0.3378481000000000 0.4305084500000000 O
atom_frac 0.6285797600000000 0.2437169700000000 0.3492202400000000 O
atom_frac 0.0745864600000000 0.3928538000000000 0.6100835300000000 O
atom_frac 0.3625976400000001 0.4422686200000001 0.6373684200000000 O
atom_frac 0.6543698300000002 0.5695334600000000 0.5582402100000000 O
atom_frac 0.9533939000000001 0.8841732400000001 0.6193446700000002 O
atom_frac 0.7054482000000002 0.8753324700000001 0.5632655400000001 O
atom_frac 0.1144545200000000 0.6314684900000000 0.5560639000000001 O
atom_frac 0.3800266000000000 0.7352452499999999 0.6333715799999999 O
atom_frac 0.9280346900000001 0.5874950899999999 0.3830591100000000 O
atom_frac 0.6438686399999999 0.5530451800000000 0.3573596700000000 O
