#=======================================================
# FHI-aims file: ./geometry.in
# Created using the Atomic Simulation Environment (ASE)
# Fri Jan 14 15:05:12 2022
#=======================================================
lattice_vector 8.2392412660000005 0.0000267520000000 -0.7427264530000000 
lattice_vector -0.0000323790000000 8.6976142719999991 -0.0001873610000000 
lattice_vector 1.4451098940000000 -0.0003743470000000 10.3195290239999995 
atom_frac 0.3233750510016903 0.9090475453721538 0.9978856109350576 Cu
atom_frac 0.6766470146824942 0.4090239672289826 0.0021280304785805 Cu
atom_frac 0.1626461738061238 0.9118372405776114 0.5154268616457217 Cu
atom_frac 0.8373503429510406 0.4118588024005306 0.4845734146186019 Cu
atom_frac 0.4411840946303088 0.0733308815640044 0.5757348831767857 H
atom_frac 0.5588088079542144 0.5734140085923939 0.4242431518993969 H
atom_frac 0.0545258750618274 0.0530866714808838 0.9051767512285664 H
atom_frac 0.9454611725772748 0.5530114401930248 0.0947991554322698 H
atom_frac 0.0677544953220561 0.0071401642489022 0.1180910864187226 H
atom_frac 0.9322494799157894 0.5071132218573525 0.8818969685151147 H
atom_frac 0.2448602214301871 0.9992569994349195 0.2898118100718393 H
atom_frac 0.7551313908826883 0.4992639951195770 0.7101719065915262 H
atom_frac 0.1494617260840485 0.8827739387573530 0.7511936404319358 H
atom_frac 0.8505388707736043 0.3827544293708840 0.2488097495447263 H
atom_frac 0.4863698111621133 0.7016642944458976 0.9039551289133102 H
atom_frac 0.5136349540488608 0.2017118896731418 0.0960371406673701 H
atom_frac 0.3369943331347612 0.2955906642337354 0.6480489538175220 H
atom_frac 0.6630718913126470 0.7956427798453447 0.3519085122876930 H
atom_frac 0.1532802744670221 0.2813454568477667 0.8504446285605881 H
atom_frac 0.8467820211936968 0.7813008380252807 0.1495207570794364 H
atom_frac 0.1206388323757109 0.5637092405405041 0.6912386459306178 H
atom_frac 0.8793302028441657 0.0637177099849922 0.3087712368827625 H
atom_frac 0.3515161518656667 0.5248365400581037 0.8152463798474232 H
atom_frac 0.6484091739443584 0.0248518515587577 0.1847618527638062 H
atom_frac 0.1997881495180208 0.1351505095464134 0.1398313103458122 H
atom_frac 0.8001780901363843 0.6350707709203929 0.8601838709407802 H
atom_frac 0.3989531956916109 0.0189202247430558 0.3779636287460519 H
atom_frac 0.6010834231169253 0.5189580296773643 0.6220049167337010 H
atom_frac 0.0996248597651572 0.2089131156118924 0.6100252391609758 C
atom_frac 0.9003948261741781 0.7089256553290467 0.3899722430359276 C
atom_frac 0.2653978643357462 0.1923843566758663 0.6732423585979035 C
atom_frac 0.7346194733133301 0.6924120187578211 0.3267262526114862 C
atom_frac 0.2333786477444519 0.1855877412777502 0.8196421801303657 C
atom_frac 0.7666645686205411 0.6855704119089338 0.1803377363949608 C
atom_frac 0.3912142946246107 0.2076883091155892 0.8902629273809310 C
atom_frac 0.6087995407843464 0.7076509254881101 0.1097263360630478 C
atom_frac 0.3214813213656171 0.6456240283355043 0.5806470074701764 C
atom_frac 0.6784832790167173 0.1456559011563953 0.4193849117933511 C
atom_frac 0.2049974347288809 0.6612832504355592 0.7002084009315084 C
atom_frac 0.7949881648185837 0.1612880174206879 0.2998013719154926 C
atom_frac 0.2914081900646011 0.6378129477435053 0.8248841640792222 C
atom_frac 0.7085212808147149 0.1378282102792312 0.1751400976926831 C
atom_frac 0.1783476716139204 0.6286550461153909 0.9453058658287006 C
atom_frac 0.8216163528832536 0.1286339526481584 0.0547147354473836 C
atom_frac 0.3495766964706418 0.0546896767845766 0.6386192714034493 O
atom_frac 0.6503961622399500 0.5547311853922423 0.3613614885856010 O
atom_frac 0.0357648679387168 0.0929757628284094 0.5563781951855518 O
atom_frac 0.9642614557291223 0.5929798798366974 0.4436039262484854 O
atom_frac 0.0328161520647612 0.3388895761114198 0.6189223271779056 O
atom_frac 0.9672193776844364 0.8388986405834229 0.3811013647427330 O
atom_frac 0.1576297763898822 0.0408278394079318 0.8521923271689503 O
atom_frac 0.8423795699331363 0.5407957454200911 0.1478012136542759 O
atom_frac 0.4358697776856956 0.1032043461056347 0.9703670901192396 O
atom_frac 0.5641506154715542 0.6031637912579059 0.0296285415978730 O
atom_frac 0.4679351635501091 0.3305417466184365 0.8738712526431061 O
atom_frac 0.5320797629578208 0.8305200436928216 0.1261380552439277 O
atom_frac 0.1833710613440402 0.0241248431254917 0.1428765842511410 O
atom_frac 0.8166430783185772 0.5240516390155677 0.8571234775535501 O
atom_frac 0.2799093944494401 0.0338555684560404 0.3744213951942825 O
atom_frac 0.7201066532631157 0.5339297392650409 0.6255820670648548 O
atom_frac 0.1094547312591132 0.7995442096792543 0.6946959217850051 O
atom_frac 0.8905267810779660 0.2995477137932098 0.3053156702833206 O
atom_frac 0.3111590623225736 0.7430123801028329 0.4899346924129730 O
atom_frac 0.6888504848992623 0.2430899388598106 0.5100875253733506 O
atom_frac 0.4167225834973251 0.5327269411333191 0.5732500664342696 O
atom_frac 0.5832354016081993 0.0327634863233897 0.4267937509024904 O
atom_frac 0.4132784807160235 0.7540521584620519 0.8437927854845810 O
atom_frac 0.5867302198157630 0.2540515960022631 0.1562278327473337 O
atom_frac 0.1819136688167262 0.7355495096732197 0.0287958788228622 O
atom_frac 0.8180861109089786 0.2355245503147714 0.9712263321523551 O
atom_frac 0.0858487486495036 0.5130553781319662 0.9618770624185089 O
atom_frac 0.9141132120232528 0.0130092940786710 0.0381362851081235 O
