#=======================================================
# FHI-aims file: ./geometry.in
# Created using the Atomic Simulation Environment (ASE)
# Wed Feb  9 14:46:24 2022
#=======================================================
lattice_vector 4.7106803099999999 -0.7262268900000000 0.0032451600000000 
lattice_vector -1.2320232600000001 7.7203764899999996 -0.0309736500000000 
lattice_vector -0.0009120800000000 0.0490416200000000 11.8554883199999992 
atom_frac 0.6535047100000001 0.3076367200000000 0.1491931600000000 Cu
    initial_moment         1.000000
atom_frac 0.3464911600000000 0.6923578900000000 0.6491975899999999 Cu
    initial_moment        -1.000000
atom_frac 0.2326964900000000 0.9275522300000000 0.2181899300000000 H
atom_frac 0.7672247600000000 0.0724237100000000 0.7181713999999999 H
atom_frac 0.6947574800000000 0.9273902000000001 0.0807186600000000 H
atom_frac 0.3052307500000001 0.0726357800000000 0.5807156799999998 H
atom_frac 0.1974126400000000 0.4136987200000001 0.3453814600000000 H
atom_frac 0.8026423600000000 0.5862089500000000 0.8454245799999999 H
atom_frac 0.4937161600000000 0.7826190600000000 0.3632471500000000 H
atom_frac 0.5062385200000000 0.2172966000000000 0.8632554599999999 H
atom_frac 0.2154419400000000 0.4135282600000000 0.9530855400000000 H
atom_frac 0.7846398500000000 0.5865660200000000 0.4531083900000000 H
atom_frac 0.2884588100000000 0.7823452899999999 0.9355461100000000 H
atom_frac 0.7116025900000000 0.2177506400000000 0.4355605499999999 H
atom_frac 0.1541233700000000 0.5274947500000000 0.3047257800000000 C
atom_frac 0.8458924900000000 0.4724341200000001 0.8047473600000000 C
atom_frac 0.3092815300000001 0.7083839900000001 0.3107004800000000 C
atom_frac 0.6906857199999999 0.2915478000000000 0.8107057500000000 C
atom_frac 0.9268866499999999 0.6695122800000000 0.1978705100000000 C
atom_frac 0.0730965000000000 0.3304600100000000 0.6978726399999999 C
atom_frac 0.7421386499999999 0.6695127000000000 0.1008259200000000 C
atom_frac 0.2578576500000000 0.3305067700000000 0.6008256900000000 C
atom_frac 0.3727080200000000 0.5273400800000000 0.9938391999999999 C
atom_frac 0.6273439300000001 0.4727322200000000 0.4938524200000000 C
atom_frac 0.3985392699999999 0.7081549099999999 0.9880378599999999 C
atom_frac 0.6015003500000000 0.2919183100000000 0.4880459499999999 C
atom_frac 0.9186594700000000 0.5053839600000000 0.2355336600000000 N
atom_frac 0.0813638500000000 0.4945698500000000 0.7355525199999999 N
atom_frac 0.1607292000000000 0.7941308800000001 0.2434272400000000 N
atom_frac 0.8392200399999999 0.2058276200000000 0.7434202500000000 N
atom_frac 0.6329656500000000 0.7940070900000000 0.0553873900000000 N
atom_frac 0.3670406100000000 0.2060330400000000 0.5553869400000000 N
atom_frac 0.5861141800000000 0.5053666200000000 0.0630056100000000 N
atom_frac 0.4139094200000000 0.4946725100000000 0.5630127400000000 N
atom_frac 0.7958359800000000 0.0960839000000000 0.2330836500000000 Cl
atom_frac 0.2040850300000000 0.9038711699999999 0.7330671399999998 Cl
atom_frac 0.2994135700000000 0.0957207800000000 0.0653359300000000 Cl
atom_frac 0.7005433599999999 0.9043192300000000 0.5653220100000000 Cl
