#=======================================================
# FHI-aims file: ./geometry.in
# Created using the Atomic Simulation Environment (ASE)
# Fri Jan 14 15:06:22 2022
#=======================================================
lattice_vector 9.0148868180000008 0.0011634080000000 2.0245662059999998 
lattice_vector 3.0630821490000000 9.1910404230000005 2.8863819240000002 
lattice_vector 0.1382366180000000 0.1163022960000000 11.6489435770000007 
atom_frac 0.4364236273297237 0.3785131080735127 0.8822094477098050 Co
atom_frac 0.5635849475331369 0.6214765398125904 0.1177820375933507 Co
atom_frac 0.3223081838364550 0.2135205632369832 0.5757315077222742 H
atom_frac 0.6776836876319335 0.7864577105611870 0.4242991783106905 H
atom_frac 0.3254202924638393 0.7691929011038567 0.6516497000040148 H
atom_frac 0.6745865477749007 0.2307844867281617 0.3483648688567200 H
atom_frac 0.4111282184014656 0.9254135950238336 0.9273069749534033 H
atom_frac 0.5888633243950780 0.0745592862811435 0.0727199536755592 H
atom_frac 0.1784019296807955 0.5893611827394452 0.0006877891942524 H
atom_frac 0.8216169234535403 0.4106385927785324 0.9992770807121830 H
atom_frac 0.9783053805505521 0.5760121946059085 0.1821156388004113 H
atom_frac 0.0217100889213811 0.4240038364811696 0.8178543758358714 H
atom_frac 0.1389952071687475 0.1087890969485272 0.2307203309934637 H
atom_frac 0.8610286313329424 0.8912165619593536 0.7692954383854842 H
atom_frac 0.3319339716636165 0.1400421196481574 0.0474714854561782 H
atom_frac 0.6681277593795799 0.8599426409882511 0.9525617622831677 H
atom_frac 0.9287188743286096 0.2129449885029046 0.3753453313287309 H
atom_frac 0.0712820781528266 0.7870839897938992 0.6246334411846564 H
atom_frac 0.8094568519957406 0.3931258259135930 0.3167857849140746 H
atom_frac 0.1905641448860748 0.6069032376461223 0.6831860490029984 H
atom_frac 0.0799337984262394 0.3158043062985810 0.4606689745122311 H
atom_frac 0.9200497719361209 0.6842253350096713 0.5393435587919130 H
atom_frac 0.9650273662837705 0.4941808940405111 0.3966448438925241 H
atom_frac 0.0349349917569270 0.5058420673600422 0.6033798988032687 H
atom_frac 0.6623788887520947 0.5607125191708348 0.4560353109494245 H
atom_frac 0.3375913645065581 0.4392500899893647 0.5439437808448704 H
atom_frac 0.4604515277499244 0.5555423607589702 0.6399874735443947 H
atom_frac 0.5395076962461474 0.4444235869589547 0.3599858403113246 H
atom_frac 0.7664925620668371 0.2074532512951350 0.8449277552094190 H
atom_frac 0.2334960805849635 0.7926099954122562 0.1550944556072693 H
atom_frac 0.9830755293531510 0.1981846192917445 0.6700077093684059 H
atom_frac 0.0169175808614812 0.8018525511564928 0.3300116017146308 H
atom_frac 0.3690511983462911 0.0823198125254265 0.7557539392727578 C
atom_frac 0.6308955930462120 0.9176704714356914 0.2442738796917256 C
atom_frac 0.3353949812503387 0.1074055608000464 0.6386885760832473 C
atom_frac 0.6645795592745289 0.8925782104331641 0.3613377507514602 C
atom_frac 0.3212393849944776 0.9928157830289661 0.6036533717092852 C
atom_frac 0.6787497660629925 0.0071714672459962 0.3963558186501360 C
atom_frac 0.3369483061709886 0.8558091095333251 0.6822038281390947 C
atom_frac 0.6630463457370014 0.1441715599622952 0.3178094705590837 C
atom_frac 0.3687587484206319 0.8316338036026066 0.7995635535624646 C
atom_frac 0.6312492413650335 0.1683436302068984 0.2004473703289094 C
atom_frac 0.3857652897091767 0.9450055548503827 0.8358127597622627 C
atom_frac 0.6142100424589289 0.0549793639512117 0.1642088529063557 C
atom_frac 0.3824719099247177 0.2061199387864079 0.7927473740336668 C
atom_frac 0.6174585197304484 0.7939098317644592 0.2072554771767444 C
atom_frac 0.3865775621561554 0.6845583661191768 0.8863680358241127 C
atom_frac 0.6134897725280271 0.3153855417406034 0.1136262875077777 C
atom_frac 0.1669409592706045 0.4848165254818397 0.0540616679695916 C
atom_frac 0.8330909076852108 0.5151829066011260 0.9459302124498025 C
atom_frac 0.0557017653372256 0.4759594320704678 0.1563409913491257 C
atom_frac 0.9443286785228791 0.5240542075437418 0.8436458991577068 C
atom_frac 0.0417490870233693 0.3401753234712713 0.2245551527769082 C
atom_frac 0.9582838043670207 0.6598370663408345 0.7754444987342242 C
atom_frac 0.1414698380462057 0.2184054167309454 0.1818743035162953 C
atom_frac 0.8585614319727529 0.7816046342778334 0.8181382275536111 C
atom_frac 0.2513142018371540 0.2345902399708492 0.0794416013398092 C
atom_frac 0.7487329205724933 0.7654121385492231 0.9205752263873780 C
atom_frac 0.9276191624973935 0.3267703963032603 0.3388658722818080 C
atom_frac 0.0723868377184759 0.6732529936386484 0.6611245674401190 C
atom_frac 0.9627654563751165 0.3816328048712662 0.4366841962542127 C
atom_frac 0.0372200942645478 0.6183882833983958 0.5633163770068920 C
atom_frac 0.8412324591359739 0.3800286294949017 0.5472188428873892 C
atom_frac 0.1587457476819411 0.6199685844216133 0.4527769040609329 C
atom_frac 0.6910120711439519 0.4812040416119173 0.5410062829905586 C
atom_frac 0.3089518886187649 0.5187737910102755 0.4589735643120463 C
atom_frac 0.5780050554195810 0.4789921994252849 0.6422132635712218 C
atom_frac 0.4219571154928091 0.5209846143173494 0.3577611379604236 C
atom_frac 0.7495563440503972 0.2836191539331451 0.7569313301971264 C
atom_frac 0.2504255047784343 0.7164030180780401 0.2430696179021937 C
atom_frac 0.8687555786805563 0.2800201090138970 0.6587414371433837 C
atom_frac 0.1312362358891478 0.7199955132948614 0.3412611187103495 C
atom_frac 0.2933367970688819 0.0160371463184603 0.4795319736513406 N
atom_frac 0.7066744856771265 0.9839728849272759 0.5204823191749812 N
atom_frac 0.2671554931196241 0.3659337275862383 0.0155414539523875 N
atom_frac 0.7328872895120211 0.6340557081052511 0.9844664582980515 N
atom_frac 0.6055888513705413 0.3819945063980724 0.7493274545242627 N
atom_frac 0.3943783169976102 0.6180027717425176 0.2506633273984776 N
atom_frac 0.4704000489540406 0.1773245393769471 0.8744945449440635 O
atom_frac 0.5295171380358427 0.8227085760264713 0.1255020530066562 O
atom_frac 0.3080011245738704 0.3355809202937152 0.7449024516296419 O
atom_frac 0.6919435449095487 0.6644320815608109 0.2550497144169911 O
atom_frac 0.4005811570943366 0.6686743694520699 0.9948281779335703 O
atom_frac 0.5995684494948037 0.3312240434100388 0.0051493843093625 O
atom_frac 0.3789335019248982 0.5867881297186698 0.8398434864222610 O
atom_frac 0.6210859255344731 0.4131962251998330 0.1601362644027234 O
atom_frac 0.2627679792842559 0.9188735694967672 0.4532169576397750 O
atom_frac 0.7372600554645958 0.0811381001690989 0.5467536707424897 O
atom_frac 0.3032432238222215 0.1316893796003811 0.4060521145736261 O
atom_frac 0.6967535205523845 0.8683564209408486 0.5939730109987379 O
