#=======================================================
# FHI-aims file: ./geometry.in
# Created using the Atomic Simulation Environment (ASE)
# Fri Jan 14 15:06:22 2022
#=======================================================
lattice_vector 8.2737171230000008 -0.0111470840000000 -2.5075147289999999 
lattice_vector 1.8120341110000000 -12.8804515080000002 5.8860505590000001 
lattice_vector -8.2943261960000001 -0.0348145470000000 -12.3812312940000009 
atom_frac 0.9555469162464546 0.9947314730552820 0.4529122866003518 Ce
atom_frac 0.5027296049192244 0.0060340841278617 0.5473086540672581 Ce
atom_frac 0.7928910506944644 0.1973576028891913 0.3293606866609762 H
atom_frac 0.4634727447991409 0.8015333586105059 0.6704689495184083 H
atom_frac 0.7925398688709960 0.3632439802727065 0.3124848366655327 H
atom_frac 0.4803125373408719 0.6355710957525957 0.6871620955547612 H
atom_frac 0.4207121756379450 0.4459671144377424 0.4616603042477790 H
atom_frac 0.9591377698256736 0.5542537366818723 0.5379944266830774 H
atom_frac 0.4230339349262237 0.2806526658028190 0.4777127425610316 H
atom_frac 0.9451837605914195 0.7196807234253844 0.5222327868358576 H
atom_frac 0.6887512194454501 0.4661396232242084 0.2448292492479067 H
atom_frac 0.4446131890884573 0.5330870112315652 0.7549275801541454 H
atom_frac 0.7333192169914823 0.6412153615675465 0.2531200027938920 H
atom_frac 0.4815246462582222 0.3581337332844259 0.7470503456799803 H
atom_frac 0.5850192398221381 0.7732500537428990 0.5264730458299879 H
atom_frac 0.0600617439011161 0.2261832472138394 0.4735991261272687 H
atom_frac 0.5463260450693211 0.6004430859282409 0.5213914192731579 H
atom_frac 0.0254048193706637 0.3988361288020103 0.4781734966048178 H
atom_frac 0.1878751983137689 0.2815652352679622 0.7700338647319001 H
atom_frac 0.4175210438593381 0.7188725681872086 0.2295765297641096 H
atom_frac 0.2674224906842752 0.4472624561135775 0.9265276872042205 H
atom_frac 0.3411203347926558 0.5527052143571539 0.0736701019806603 H
atom_frac 0.7843898104529075 0.4254789790301672 0.9517568567744660 H
atom_frac 0.8326648633117983 0.5750046411641351 0.0487961953161643 H
atom_frac 0.7043784804335897 0.2629317865525138 0.7904198009353817 H
atom_frac 0.9136244489318058 0.7378300909226709 0.2097124587204530 H
atom_frac 0.2453705133512543 0.0842329665078623 0.3503188996567061 H
atom_frac 0.8944162370006622 0.9156303919596384 0.6502168242504922 H
atom_frac 0.0293279301066178 0.9819600808148227 0.1445911495692585 H
atom_frac 0.8850493020607217 0.0190033600376296 0.8560336468554722 H
atom_frac 0.6187496210251737 0.1324779776434823 0.4215645570412078 C
atom_frac 0.1973126708283529 0.8669572792136718 0.5779005156855204 C
atom_frac 0.6090847066582654 0.2286386946964926 0.4053151035151856 C
atom_frac 0.2037060080274101 0.7709147293089913 0.5945642305740079 C
atom_frac 0.7113449051146076 0.2524192221454484 0.3575237689633253 C
atom_frac 0.3538222291085233 0.7467714542002994 0.6423294982266938 C
atom_frac 0.7097443857493531 0.3451577639704413 0.3478597117038759 C
atom_frac 0.3620106367413881 0.6539731818405485 0.6518763778180200 C
atom_frac 0.6082158914662229 0.4181885793507052 0.3869775712301759 C
atom_frac 0.2213810813392172 0.5812685764736756 0.6126902669993868 C
atom_frac 0.5035073512807955 0.3924120174034229 0.4326754542979430 C
atom_frac 0.0708951401162139 0.6075204169595241 0.5670748825437926 C
atom_frac 0.5031908630706425 0.2990061120783878 0.4411133644795269 C
atom_frac 0.0620569509417876 0.7010185291780927 0.5587628259854327 C
atom_frac 0.6177663380425500 0.5199145656791304 0.3840163482391219 C
atom_frac 0.2343270391353230 0.4794534344506973 0.6155824467572729 C
atom_frac 0.6675020758463575 0.5333309923431387 0.3074954185401210 C
atom_frac 0.3608289479160476 0.4659695331862395 0.6922345707160956 C
atom_frac 0.6906168730093327 0.6310173933771211 0.3108671672844422 C
atom_frac 0.3810501005065632 0.3683164187839482 0.6890978870009121 C
atom_frac 0.6635553412131968 0.7189692876008211 0.3904760900420925 C
atom_frac 0.2747496204483609 0.2803244185832909 0.6095803237517713 C
atom_frac 0.6072562883639918 0.7059544225598418 0.4644367914338972 C
atom_frac 0.1442462313138365 0.2934407055720101 0.5355030628218955 C
atom_frac 0.5849841868129529 0.6081327595157832 0.4611466799102145 C
atom_frac 0.1247170141139689 0.3912309569541462 0.5385220003329961 C
atom_frac 0.7084571787772233 0.8234701453853290 0.3997033882497332 C
atom_frac 0.3099411544764976 0.1760167013481038 0.6014863155814822 C
atom_frac 0.8902817897986067 0.1646640512812852 0.6726678496222644 C
atom_frac 0.2169278533543277 0.8369442667266968 0.3263533638661826 C
atom_frac 0.9409427371449436 0.2620283068241562 0.7697452590145912 C
atom_frac 0.1709147448784235 0.7386917493071293 0.2301205490872888 C
atom_frac 0.1000091035182109 0.3143597730107148 0.8099883589454251 C
atom_frac 0.2897549429522995 0.6860676746361138 0.1898247578727634 C
atom_frac 0.1441650803834592 0.4072149451813020 0.8990674213995932 C
atom_frac 0.2451034660189037 0.5929529327455826 0.1010012946517307 C
atom_frac 0.0326301952261614 0.4507379704507174 0.9526965055172169 C
atom_frac 0.0800192467544676 0.5494871950962334 0.0475332346229891 C
atom_frac 0.8738086275009707 0.3960087418391042 0.9119229908867439 C
atom_frac 0.9619123228807992 0.6044469397603579 0.0884109103561101 C
atom_frac 0.8280269099989966 0.3039205083445395 0.8219708980102780 C
atom_frac 0.0058563563630969 0.6967397665256386 0.1781422655003553 C
atom_frac 0.1253577467122113 0.0517235993553271 0.2898016553783762 C
atom_frac 0.8355748357650157 0.9492309263392686 0.7109918882625833 C
atom_frac 0.7422293378876715 0.0849512395688450 0.4106325270384444 O
atom_frac 0.3315491397603266 0.9126328590629386 0.5871369838988227 O
atom_frac 0.5056509930820070 0.1025099096185897 0.4469265670376855 O
atom_frac 0.0592183392241949 0.8982499353036814 0.5539395487513374 O
atom_frac 0.7080606533017713 0.9053355304160319 0.4816030042664605 O
atom_frac 0.2279940877907194 0.0937701277148690 0.5198099467306037 O
atom_frac 0.7618694794286610 0.8326418188012499 0.3324703984614031 O
atom_frac 0.4296252877032813 0.1667633130950250 0.6696672857904530 O
atom_frac 0.9911255302070925 0.1301513429921002 0.6228367225179025 O
atom_frac 0.3672530519549396 0.8728515877193745 0.3752353888279175 O
atom_frac 0.7455689268634770 0.1188898025436060 0.6426837633654755 O
atom_frac 0.1012933142375160 0.8821903194320910 0.3562087033763035 O
atom_frac 0.9944666460461349 0.0485729170958820 0.3060069546718365 O
atom_frac 0.6886808061569809 0.9538955655633644 0.6950439788701671 O
atom_frac 0.1384956709739456 0.0141945314016994 0.1942924526244454 O
atom_frac 0.9444397122926489 0.9861322485461773 0.8063768090993547 O
