#=======================================================
# FHI-aims file: ./geometry.in
# Created using the Atomic Simulation Environment (ASE)
# Wed Feb  9 14:46:26 2022
#=======================================================
lattice_vector 7.7694712700000004 0.0482059400000000 1.5759302100000001 
lattice_vector 1.5184955200000001 8.3432217600000005 2.8347587800000000 
lattice_vector -0.6005407699999999 -0.5527290400000000 10.3125289900000006 
atom_frac -0.0178235100000000 0.3805363000000000 0.6608996900000000 Cu
    initial_moment         1.000000
atom_frac 1.0178076800000000 0.6195006700000001 0.3390816400000000 Cu
    initial_moment        -1.000000
atom_frac 1.0000097900000000 0.4999601000000000 0.9999659499999999 Cu
    initial_moment         1.000000
atom_frac 0.6809888599999999 0.2281020200000000 0.1126180800000000 H
atom_frac 0.3190875800000000 0.7717251900000001 0.8875331199999998 H
atom_frac 0.4545601100000000 0.3212543700000000 0.1313078900000000 H
atom_frac 0.5455035600000000 0.6786032799999999 0.8686974299999999 H
atom_frac 0.6497092399999999 0.0928848000000000 0.3434347900000000 H
atom_frac 0.3501306900000000 0.9071382000000000 0.6567410700000000 H
atom_frac 0.4353339299999999 0.2096347600000000 0.3616460400000000 H
atom_frac 0.5645591700000000 0.7905331600000001 0.6384218000000000 H
atom_frac 0.5731518700000000 0.3016140400000000 0.5044641799999999 H
atom_frac 0.4268524899999999 0.6985622100000002 0.4955408099999999 H
atom_frac 0.7758815899999999 0.2859951900000000 0.4046622499999999 H
atom_frac 0.2241106900000000 0.7140703600000000 0.5953300799999999 H
atom_frac 0.4371148800000000 0.5283623100000000 0.3287157600000000 H
atom_frac 0.5629339400000001 0.4717542800000000 0.6711956300000000 H
atom_frac 0.6442271499999999 0.5716068000000001 0.3481733700000000 H
atom_frac 0.3558587799999999 0.4284782000000000 0.6516805100000000 H
atom_frac 0.3033814799999999 0.0274466700000000 0.9709118799999999 H
atom_frac 0.6966751799999999 0.9724127800000000 0.0291134200000000 H
atom_frac 0.1891102000000000 0.8876249000000002 0.0857619100000000 H
atom_frac 0.8109201900000000 0.1122696800000000 0.9142863600000000 H
atom_frac 0.4520154000000000 0.0486514500000000 0.1631016000000000 H
atom_frac 0.5479998400000000 0.9512976000000001 0.8368972000000000 H
atom_frac 0.4626111899999999 0.8421782300000000 0.1906320800000000 H
atom_frac 0.5373746300000000 0.1577678800000000 0.8094542300000002 H
atom_frac 0.1976573700000000 0.8568870399999999 0.3443015800000000 H
atom_frac 0.8023216599999999 0.1431569800000000 0.6557683600000001 H
atom_frac 0.3232518500000000 0.9694089200000001 0.3961278600000000 H
atom_frac 0.6767156000000000 0.0307011400000000 0.6038681500000000 H
atom_frac 0.9817333999999999 0.0922505900000000 0.3391140700000000 H
atom_frac 0.0182387400000000 0.9078071400000001 0.6608339299999999 H
atom_frac 0.1367753100000000 0.2184258700000000 0.2930531299999999 H
atom_frac 0.8631984300000000 0.7816308000000000 0.7068490799999998 H
atom_frac 0.5807260299999999 0.2927435299999999 0.1750491600000000 C
atom_frac 0.4192956999999999 0.7071680600000001 0.8250094900000000 C
atom_frac 0.5718621499999997 0.2148352000000000 0.3255900299999999 C
atom_frac 0.4280605499999999 0.7852205000000000 0.6744945299999999 C
atom_frac 0.6334120999999999 0.3165880900000000 0.4006336300000000 C
atom_frac 0.3665779000000000 0.6835088800000001 0.5993698400000000 C
atom_frac 0.5799854200000000 0.4864930600000000 0.3242514300000000 C
atom_frac 0.4200562500000000 0.5135771300000000 0.6756727800000000 C
atom_frac 0.2510980500000000 0.9891001699999999 0.0753720400000000 C
atom_frac 0.7489273099999999 0.0108031300000000 0.9246515699999999 C
atom_frac 0.3723587700000001 0.9578034799999999 0.1844740500000000 C
atom_frac 0.6276388999999999 0.0421561300000000 0.8155590500000000 C
atom_frac 0.2536016000000000 0.9640849399999999 0.3130537800000000 C
atom_frac 0.7463770700000000 0.0359577700000000 0.6869605900000000 C
atom_frac 0.1065529200000000 0.1082650300000000 0.2819586500000000 C
atom_frac 0.8934288300000001 0.8917672000000000 0.7179946599999999 C
atom_frac 0.0746499200000000 0.1502113900000000 0.1035547500000000 S
atom_frac 0.9253659099999999 0.8497241300000000 0.8963983900000000 S
atom_frac 0.6468524299999999 0.4800038200000000 0.1514284700000000 S
atom_frac 0.3531866099999999 0.5199198200000001 0.8485206399999999 S
atom_frac 0.7985802100000000 0.4113361700000000 0.8405506800000001 Cl
atom_frac 0.2013931200000000 0.5885898200000002 0.1594336700000000 Cl
atom_frac 0.1322257300000000 0.1438309200000000 0.7500590199999999 Cl
atom_frac 0.8677890000000000 0.8562064400000001 0.2499141700000000 Cl
atom_frac 0.8384717299999999 0.6121226100000000 0.5340187599999999 Cl
atom_frac 0.1614852999999999 0.3879244700000000 0.4659785799999999 Cl
atom_frac 0.1591151000000000 0.2962456800000000 0.0393461000000000 O
atom_frac 0.8409092299999998 0.7036719099999998 0.9605669800000000 O
atom_frac 0.8487729599999999 0.4289747900000000 0.1568127400000000 O
atom_frac 0.1512629900000000 0.5709308500000000 0.8431388199999998 O
