#=======================================================
# FHI-aims file: ./geometry.in
# Created using the Atomic Simulation Environment (ASE)
# Fri Jan 14 15:06:22 2022
#=======================================================
lattice_vector 8.6045023989999994 0.0000000000000000 1.9598780000000000 
lattice_vector 1.7059525200000001 9.9559762880000005 1.1820960000000000 
lattice_vector 0.0000000000000000 0.0000000000000000 12.5700000000000003 
atom_frac 0.3612148248402535 0.3802369441721964 0.4663219125507965 Mn
atom_frac 0.6387878496235403 0.6197584065599955 0.5336754028237536 Mn
atom_frac 0.3966841122314905 0.9189415216895682 0.4423962162660970 H
atom_frac 0.6033189605112242 0.0810518201989510 0.5575932704742499 H
atom_frac 0.0278665176008914 0.7381345422505277 0.3747517211902290 H
atom_frac 0.9721190570989794 0.2618708527000493 0.6252560667555825 H
atom_frac 0.8803058185930014 0.9648958296112795 0.3311414870538912 H
atom_frac 0.1196805200102062 0.0351115741829702 0.6688651973276124 H
atom_frac 0.9966023452227334 0.1698597858291748 0.3412554029801171 H
atom_frac 0.0033936891174307 0.8301456091214022 0.6587507541288745 H
atom_frac 0.3669355236180111 0.2127857619100055 0.6799902897240885 H
atom_frac 0.6330613725890117 0.7872035622911682 0.3200053111410385 H
atom_frac 0.2146289582012955 0.2030740071605948 0.8734980473420749 H
atom_frac 0.7853785967854919 0.7969143126187390 0.1264959860938646 H
atom_frac 0.8840151596687278 0.5436021383983416 0.7746951649567749 H
atom_frac 0.1159966131136443 0.4563942167556903 0.2253054106470955 H
atom_frac 0.0461091906580435 0.5382525876903728 0.5906010644974558 H
atom_frac 0.9538979987043277 0.4617317144016084 0.4094005636776502 H
atom_frac 0.9971651877602741 0.2841167875630006 0.0085986132085694 H
atom_frac 0.0028382832613545 0.7158745454818458 0.9914053201561188 H
atom_frac 0.7561832712472736 0.5227925267633964 0.9391871191724378 H
atom_frac 0.2438253806127477 0.4772078460779882 0.0608151562989718 H
atom_frac 0.5168371651619380 0.5745724813441839 0.0646278741853408 H
atom_frac 0.4831679674968115 0.4254339180282329 0.9353767698832769 H
atom_frac 0.3476376251577662 0.5446055558142788 0.2498748303401115 H
atom_frac 0.6523704292838772 0.4553978302926255 0.7501264593634360 H
atom_frac 0.6973646910721173 0.2614690839649398 0.3558423807249299 H
atom_frac 0.3026299819463389 0.7385373154074770 0.6441599164557701 H
atom_frac 0.8813052606986319 0.2795486770448221 0.1765493902412487 H
atom_frac 0.1186929315210890 0.7204516957965694 0.8234569027018281 H
atom_frac 0.5399727183782163 0.8579098375610741 0.8048112618384025 H
atom_frac 0.4600302890554816 0.1420955573895029 0.1951826704167559 H
atom_frac 0.2568509155283394 0.9535468672663043 0.8308146065050224 H
atom_frac 0.7431466792730035 0.0464565188405928 0.1691843363106145 H
atom_frac 0.2360833500748782 0.8975925355277425 0.1800242553814400 H
atom_frac 0.7639177312732315 0.1024108505791546 0.8199765304567567 H
atom_frac 0.5206222294459764 0.8035304392641365 0.1387465257013148 H
atom_frac 0.4793853940622341 0.1964809822174587 0.8612516889022075 H
atom_frac 0.0002957491934765 0.9904643919135836 0.1232837209100026 H
atom_frac 0.9997053648091451 0.0095329676622882 0.8767136488533681 H
atom_frac 0.2035323666572708 0.0558076861502457 0.3906246101617371 C
atom_frac 0.7964617415973124 0.9441956999566513 0.6093724896313262 C
atom_frac 0.2862584735674076 0.9280787471477723 0.4145012045070189 C
atom_frac 0.7137426404352141 0.0719186124280995 0.5854929830765556 C
atom_frac 0.2235839010350134 0.8135113790660711 0.4071578587158982 C
atom_frac 0.7764040306838781 0.1864879893534734 0.5928381952974177 C
atom_frac 0.0771737786982456 0.8277299746015601 0.3768983704769938 C
atom_frac 0.9228111985832541 0.1722784336145224 0.6231044539762181 C
atom_frac 0.9956998265366935 0.9551077388021980 0.3520127905934630 C
atom_frac 0.0042867112059710 0.0448986605702117 0.6479923661057825 C
atom_frac 0.0590622610648950 0.0689636033813770 0.3579493694674554 C
atom_frac 0.9409281615034574 0.9310407871473600 0.6420545748898334 C
atom_frac 0.2614465824405201 0.1788222418876089 0.4089786426454438 C
atom_frac 0.7385550963259746 0.8211781309537827 0.5910159690560803 C
atom_frac 0.3096377259583818 0.6765906029847741 0.4353319640014491 C
atom_frac 0.6903611975101714 0.3234178052313155 0.5646678904577129 C
atom_frac 0.2584831829403669 0.2831033259286926 0.7058217332711367 C
atom_frac 0.7415214829180314 0.7168819805851285 0.2941762161797783 C
atom_frac 0.1734490829253090 0.2782298711718241 0.8123887462579020 C
atom_frac 0.8265607964259871 0.7217584486075097 0.1876073114047045 C
atom_frac 0.0341967431570396 0.3716832878017371 0.8430567404644052 C
atom_frac 0.9658135018186657 0.6283090496649422 0.1569404734534531 C
atom_frac 0.9889978931951615 0.4667980181513300 0.7600011708047635 C
atom_frac 0.0110142778661313 0.5331963281590362 0.2399971449795402 C
atom_frac 0.0802661945251160 0.4652411643027818 0.6551367010221868 C
atom_frac 0.9197363134537255 0.5347491643202247 0.3448634992294899 C
atom_frac 0.9462597405024979 0.3636418865685442 0.9542996605217411 C
atom_frac 0.0537475826903204 0.6363534641636548 0.0457024988510781 C
atom_frac 0.8074176947722265 0.4430384195788478 0.9932757262987054 C
atom_frac 0.1925820579086804 0.5569599444188640 0.0067281256207110 C
atom_frac 0.7141757330345584 0.4283608032634945 0.1024000875574488 C
atom_frac 0.2858168474133577 0.5716385651560500 0.8976063792687725 C
atom_frac 0.5609700123077345 0.5034091941380865 0.1268551487243030 C
atom_frac 0.4390299068581172 0.4965941919688106 0.8731466138629430 C
atom_frac 0.4666237440127077 0.4876307314885366 0.2295447933701027 C
atom_frac 0.5333732533702575 0.5123756678838731 0.7704603235822063 C
atom_frac 0.6624325121111525 0.3297617335586835 0.2886374754841583 C
atom_frac 0.3375635548835234 0.6702376348608681 0.7113708343646368 C
atom_frac 0.7637033678696670 0.3397999254053659 0.1880062401085426 C
atom_frac 0.2362967830901610 0.6601964297486660 0.8119929653564526 C
atom_frac 0.4688522821825031 0.8674036327716904 0.8875316119503439 C
atom_frac 0.5311387051497221 0.1326037710225592 0.1124695743450985 C
atom_frac 0.3088851341576273 0.9211904221843384 0.9024715439725527 C
atom_frac 0.6911173085121975 0.0788119595007188 0.0975275329792993 C
atom_frac 0.2178216579842811 0.9322199783849072 0.0093224039000930 C
atom_frac 0.7821712880880441 0.0677834077219899 0.9906788548218017 C
atom_frac 0.2984099685799677 0.8897379567563704 0.0952678749299595 C
atom_frac 0.7015932053386892 0.1102724603033920 0.9047271501728247 C
atom_frac 0.4585418504729404 0.8374357028199454 0.0717569228813133 C
atom_frac 0.5414529890304608 0.1625757186616568 0.9282440805121653 C
atom_frac 0.0487621360925843 0.9828327947901982 0.0358201628360248 C
atom_frac 0.9512436266390484 0.0171645647856735 0.9641804598357240 C
atom_frac 0.2140707014412371 0.3755603560955336 0.6270826688227233 N
atom_frac 0.7859277552269647 0.6244269592619602 0.3729208331030662 N
atom_frac 0.5155790252783847 0.4023904722260809 0.3106804966936282 N
atom_frac 0.4844251443375711 0.5976149227244960 0.6893156409922839 N
atom_frac 0.5450309349692830 0.8241261090476399 0.9699912238849251 N
atom_frac 0.4549772859573125 0.1758822991684497 0.0300008165819179 N
atom_frac 0.1900975902020363 0.2947355352319221 0.3821683546423600 O
atom_frac 0.8098969163314610 0.7052658420313023 0.6178368274154593 O
atom_frac 0.3798625350598642 0.1647302035036731 0.4554836006261809 O
atom_frac 0.6201511964626079 0.8352621339630062 0.5445035231400226 O
atom_frac 0.4473032534179496 0.6663304339119378 0.4537107123064602 O
atom_frac 0.5526848447859010 0.3336739566167992 0.5462967766388047 O
atom_frac 0.2399699582507040 0.5764216219475173 0.4383820576408795 O
atom_frac 0.7600181399531394 0.4235827685812197 0.5616174758549022 O
