#=======================================================
# FHI-aims file: ./geometry.in
# Created using the Atomic Simulation Environment (ASE)
# Wed Feb  9 14:46:24 2022
#=======================================================
lattice_vector -3.9751647200000000 1.1503282200000000 -1.2703142000000001 
lattice_vector -4.9626453699999997 0.9250663099999999 8.8797879300000009 
lattice_vector -1.1844367000000000 4.1262495699999997 -0.0249490900000000 
atom_frac 0.9826961200000000 0.5006822700000000 0.4996708600000000 V
atom_frac -0.0391106500000000 0.1221598200000000 1.0167480499999997 H
atom_frac 0.6976866599999998 1.0052443700000000 0.4040762000000001 H
atom_frac 0.1053166899999999 0.8787231400000000 -0.0200752300000000 H
atom_frac 1.1183377699999999 -0.0048199300000000 0.5880057100000000 H
atom_frac 0.6460027000000003 0.2552265100000000 0.4535414800000000 H
atom_frac 0.9171588200000000 0.3640857200000000 0.0988185000000000 H
atom_frac 0.3677959500000000 0.7462443599999999 0.5378756500000000 H
atom_frac 0.3845558299999999 0.6366116100000000 0.8950901199999998 H
atom_frac 0.5945133699999998 0.9350462700000001 0.9298094200000000 C
atom_frac 0.4620069800000000 0.0665020600000000 0.0586991700000000 C
atom_frac 0.3573108900000000 0.8365032900000000 1.0380440000000000 C
atom_frac 0.9606047599999999 0.9098194400000000 0.6978988299999997 C
atom_frac 0.2314390600000000 0.1647742500000000 -0.0459816000000000 C
atom_frac 0.5677469100000000 0.0913703500000000 0.2920899000000000 C
atom_frac 0.5351718899999999 0.7225024300000001 0.8125485199999998 C
atom_frac 1.1202122900000000 0.7963549400000000 0.4811731300000000 C
atom_frac 0.0697551200000000 0.2779791400000000 0.1799543400000000 C
atom_frac 0.3941726200000000 0.2049189700000000 0.5107952099999999 C
atom_frac 0.8895822700000001 0.7011391200000001 0.5696086699999999 N
atom_frac 0.1550352200000000 0.2993818500000000 0.4215947200000000 N
atom_frac 0.6499104299999999 0.4255505100000000 0.9175701400000000 F
atom_frac 0.9490708200000000 0.5761462200000000 0.1094837200000000 F
atom_frac 0.3694087600000001 0.4782745300000000 0.5581544899999998 F
