#=======================================================
# FHI-aims file: ./geometry.in
# Created using the Atomic Simulation Environment (ASE)
# Tue Nov 30 12:20:15 2021
#=======================================================
lattice_vector 10.2592845480000001 0.0011625270000000 -0.0000931220000000 
lattice_vector 0.0019846740000000 17.3919834279999996 -0.0002382160000000 
lattice_vector -0.0001618760000000 -0.0002832890000000 19.4284841300000011 
atom_frac 0.0390206901858576 0.2499695036296928 0.2500176106338329 La
atom_frac 0.4609885672899877 0.7500097165065613 0.7500184520310282 La
atom_frac 0.9609971123832680 0.7500360915387109 0.7499745251906447 La
atom_frac 0.5390194914449609 0.2499786300872843 0.2499798600335978 La
atom_frac 0.9721550061302221 0.0520477769256473 0.2973295749158210 H
atom_frac 0.5278601719175383 0.9479454882401872 0.7973264855623794 H
atom_frac 0.9719073395783724 0.4478567706889154 0.2026286336217495 H
atom_frac 0.5280424859060986 0.5520460181457525 0.7026842952449428 H
atom_frac 0.0278510990355088 0.9479618439680878 0.7026687374002873 H
atom_frac 0.4721810309647195 0.0520256069123590 0.2026780029479269 H
atom_frac 0.0281182588910838 0.5521568732751875 0.7973408551781984 H
atom_frac 0.4719938389194950 0.4479486515548885 0.2973289435703491 H
atom_frac 0.6306728739914647 0.1327628773138585 0.4692605091965519 H
atom_frac 0.8693136117108650 0.8672451907463598 0.9692787876756767 H
atom_frac 0.6306313140536729 0.3672568811568270 0.0307700903536414 H
atom_frac 0.8693734995458227 0.6327501245856766 0.5307337216844770 H
atom_frac 0.3692981350961587 0.8672772197191210 0.5307367739086217 H
atom_frac 0.1306301045637497 0.1327972080043693 0.0307174659105200 H
atom_frac 0.3693153388178914 0.6327228451465958 0.9692446919732089 H
atom_frac 0.1305955752235164 0.3672117756383316 0.4692640751608366 H
atom_frac 0.1850857232876990 0.0793597175940235 0.5226478850518104 H
atom_frac 0.3149222040860947 0.9206362445457971 0.0226409139038211 H
atom_frac 0.1850229935150196 0.4205593808393004 0.9773633025936306 H
atom_frac 0.3150636131573988 0.5794502398764296 0.4773896569393441 H
atom_frac 0.8149067372430918 0.9206418545093059 0.4773493976838238 H
atom_frac 0.6850556333717036 0.0793762530497162 0.9773527659383132 H
atom_frac 0.8150240556457931 0.5794203381581228 0.0226149359324950 H
atom_frac 0.6849785630544361 0.4205283299694926 0.5226179199164490 H
atom_frac 0.8839813549240317 0.9763144199430448 0.3948771731491546 H
atom_frac 0.6159988834163741 0.0236981247978889 0.8948779993326496 H
atom_frac 0.8837543964062462 0.5236045913596642 0.1050662014756085 H
atom_frac 0.6162040454131059 0.4763059430676577 0.6051146742681935 H
atom_frac 0.1160023311823011 0.0236969273735070 0.6051206243724749 H
atom_frac 0.3840091745643264 0.9762942466640044 0.1051218569059102 H
atom_frac 0.1162858255461927 0.4763952520735729 0.8948976254350710 H
atom_frac 0.3838430014078611 0.5236887259162942 0.3948985645984848 H
atom_frac 0.9944500905134885 0.2490801482433513 0.4373116236556314 H
atom_frac 0.5055431870803204 0.7509119283162916 0.9372787827697874 H
atom_frac 0.9944604005015804 0.2508852245981146 0.0626766536631536 H
atom_frac 0.5055366535657413 0.7490952231889028 0.5627034744399282 H
atom_frac 0.0055696660421916 0.7509030228712491 0.5626928648999510 H
atom_frac 0.4944512286101741 0.2490585945585125 0.0626994553912965 H
atom_frac 0.0055408279900959 0.7491370455156459 0.9372840850864391 H
atom_frac 0.4944840693802064 0.2509304960907315 0.4372943234354451 H
atom_frac 0.6888275021248375 0.1101350579201181 0.5926201089023236 H
atom_frac 0.8111071363912075 0.8898607436746107 0.0926303616352016 H
atom_frac 0.6887685898845034 0.3899587636502275 0.9074376012023676 H
atom_frac 0.8111759743734910 0.6100794910642477 0.4074013606034795 H
atom_frac 0.3110986651863925 0.8899286164160711 0.4073910713982797 H
atom_frac 0.1887829722155842 0.1101690090107965 0.9073571414996733 H
atom_frac 0.3111069027778086 0.6100474163434486 0.0925751222749867 H
atom_frac 0.1887355958926164 0.3898605640159404 0.5926062151540703 H
atom_frac 0.2614610829302464 0.1482783685387261 0.4196559863087400 H
atom_frac 0.2385457268291091 0.8517155773671591 0.9196360862010877 H
atom_frac 0.2613569334668426 0.3516257338559968 0.0803793075417971 H
atom_frac 0.2387171479956578 0.6483721052486687 0.5804136136908012 H
atom_frac 0.7385489242191809 0.8517157277758330 0.5803469582094820 H
atom_frac 0.7614564830429770 0.1482750694691504 0.0803586229063455 H
atom_frac 0.7386842631816322 0.6483764098498599 0.9196107695197139 H
atom_frac 0.7613230765135057 0.3516179642535421 0.4195924191720479 H
atom_frac 0.8993313626255952 0.1597227469951434 0.6384497994311145 H
atom_frac 0.6006076477719092 0.8402630472514830 0.1384295386038161 H
atom_frac 0.8992745990807903 0.3403423575349365 0.8615692663020055 H
atom_frac 0.6006519484057691 0.6596932547347337 0.3615672245140402 H
atom_frac 0.1006074788773148 0.8403271271081468 0.3615660131347838 H
atom_frac 0.3992980605264193 0.1597442799817373 0.8615404642522363 H
atom_frac 0.1006057610315025 0.6596931454602031 0.1384110309419170 H
atom_frac 0.3992869077145684 0.3402807222640548 0.6384444694557843 H
atom_frac 0.0503944648072761 0.2315860232169413 0.5607802331580770 H
atom_frac 0.4495649550274833 0.7684065841052221 0.0607440551323464 H
atom_frac 0.0503728411553439 0.2684183505790331 0.9391992967783620 H
atom_frac 0.4495702516144888 0.7315888866056001 0.4392317014523143 H
atom_frac 0.9495794721851141 0.7684362496013578 0.4392345498212221 H
atom_frac 0.5503797449738457 0.2315869410185984 0.9392233742003878 H
atom_frac 0.9495543055592108 0.7316165739004035 0.0607557799811644 H
atom_frac 0.5504105117840864 0.2684155613182498 0.5607748460100266 H
atom_frac 0.8270775975556787 0.1300774878293183 0.2012528604648692 H
atom_frac 0.6729306524963973 0.8699022985172393 0.7012621158773908 H
atom_frac 0.8270190829732654 0.3699620123189646 0.2987029304865131 H
atom_frac 0.6729883385915727 0.6300433729820157 0.7987212307763440 H
atom_frac 0.1729314352606579 0.8699137334949472 0.7987397898495273 H
atom_frac 0.3270676578601766 0.1300923735986288 0.2987434021327998 H
atom_frac 0.1729909232376059 0.6300366837657381 0.7012969258389317 H
atom_frac 0.3270460340328256 0.3699639460449833 0.2012729639814737 H
atom_frac 0.9542193310083884 0.0999527295277076 0.1606884329349896 H
atom_frac 0.5457973895791354 0.9000084852177681 0.6606827962633159 H
atom_frac 0.9540773395852042 0.4000755297754496 0.3393159294297661 H
atom_frac 0.5459469638319306 0.5999058783928605 0.8393317583471144 H
atom_frac 0.0458082190054512 0.9000522900786765 0.8393078205947118 H
atom_frac 0.4542077437760880 0.0999861863498097 0.3393170599894261 H
atom_frac 0.0459336422748393 0.5999185664571841 0.6606859856767358 H
atom_frac 0.4541049524533918 0.4001106394711443 0.1606850837681648 H
atom_frac 0.0387347425897886 0.5555899349948492 0.5152772542871915 H
atom_frac 0.4612982968780486 0.4443977358611024 0.0152821402680914 H
atom_frac 0.0386328228717829 0.9443767076256578 0.9847206007012088 H
atom_frac 0.4613721410175629 0.0556205084075145 0.4847277919665202 H
atom_frac 0.9612664939706190 0.4443955375361527 0.4847437048700838 H
atom_frac 0.5387156091974744 0.5555969353045287 0.9847290396069894 H
atom_frac 0.9613615864940428 0.0556283142630036 0.0152797703352334 H
atom_frac 0.5386437151116468 0.9443701376004799 0.5152720642882542 H
atom_frac 0.1326957634653141 0.4608577398144365 0.2980557876690212 H
atom_frac 0.3673335507156139 0.5390120730359131 0.7980433524504134 H
atom_frac 0.1331082024693372 0.0391687596009049 0.2017718778107920 H
atom_frac 0.3670028411611455 0.9608773049079535 0.7018063262759852 H
atom_frac 0.8673425152274845 0.5391150808015652 0.7019692891762331 H
atom_frac 0.6328158475372803 0.4609532646731225 0.2019343716817446 H
atom_frac 0.8669183711329609 0.9608448847172119 0.7982233464035884 H
atom_frac 0.6330256833831028 0.0391311649848447 0.2982197803760016 H
atom_frac 0.2764575675559868 0.5070535356450350 0.2050147868405361 H
atom_frac 0.2234459896914203 0.4928460288507138 0.7050338111760366 H
atom_frac 0.2772675562001936 0.9930851893113585 0.2947029912462256 H
atom_frac 0.2228240025931427 0.0069541292436099 0.7947342830807711 H
atom_frac 0.7236002034679316 0.4929313583307151 0.7950185255773048 H
atom_frac 0.7767248501246228 0.5071308067664902 0.2949310454949908 H
atom_frac 0.7227463484788357 0.0069152313364214 0.7052901739125161 H
atom_frac 0.7772201141326036 0.9930721639109811 0.2052918238644920 H
atom_frac 0.1820420177175848 0.6774870135140461 0.4043237901527020 H
atom_frac 0.3176465521004700 0.3224915066932894 0.9044218933882885 H
atom_frac 0.1820286114959444 0.8223866792014007 0.0956946946603381 H
atom_frac 0.3179319099395527 0.1776093658506070 0.5956883634569008 H
atom_frac 0.8178890398466903 0.3224921390722458 0.5957043745054448 H
atom_frac 0.6822708524297595 0.6775227203606279 0.0956016392607069 H
atom_frac 0.8179463029747962 0.1776200688978450 0.9043041321792484 H
atom_frac 0.6820449596202636 0.8223669080395839 0.4042939923561660 H
atom_frac 0.3272368091297224 0.7229559401356910 0.3111721250184019 H
atom_frac 0.1722333966942458 0.2770782087948336 0.8113325742609517 H
atom_frac 0.3278599265369309 0.7770857393134709 0.1886634912277430 H
atom_frac 0.1720918315194240 0.2229127599915088 0.6886573876477513 H
atom_frac 0.6726698742024410 0.2770548379037052 0.6888596428680457 H
atom_frac 0.8276859546258422 0.7229492425035959 0.1886842673529897 H
atom_frac 0.6720984197231842 0.2229100853533481 0.8113373942312803 H
atom_frac 0.8278947827806462 0.7770761626695517 0.3113198212851600 H
atom_frac 0.3779679415115282 0.6366778466699118 0.2116432160361512 H
atom_frac 0.1216736088399486 0.3633035994175772 0.7117440446044723 H
atom_frac 0.3790081890270258 0.8635007645901567 0.2880276688729352 H
atom_frac 0.1210003116815201 0.1365141926229186 0.7880359417240824 H
atom_frac 0.6219991731301278 0.3633421269960309 0.7883900963772773 H
atom_frac 0.8783841568440420 0.6367048678331955 0.2882398561156450 H
atom_frac 0.6209745260392835 0.1364916085489584 0.7119711578277830 H
atom_frac 0.8790165139467233 0.8635034772650770 0.2119639148666863 H
atom_frac 0.8090342270014901 0.1913867854561602 0.4459231544936699 C
atom_frac 0.6909573730802306 0.8086067221878039 0.9459197559326710 C
atom_frac 0.8090043944964195 0.3085999278085226 0.0540782720112105 C
atom_frac 0.6910011566920033 0.6913992130801175 0.5540756024883250 C
atom_frac 0.1909748021548197 0.8086239852307672 0.5540772166833392 C
atom_frac 0.3090233922993519 0.1913862259334209 0.0540713501428272 C
atom_frac 0.1909714924741266 0.6914177446817719 0.9459133490522472 C
atom_frac 0.3090049490136408 0.3086075329090718 0.4459216803761449 C
atom_frac 0.0145751480516054 0.0533269716278326 0.3485868488394955 C
atom_frac 0.4854264913688979 0.9466859338204473 0.8485819382153821 C
atom_frac 0.0143731439515307 0.4465882921910735 0.1513863718472450 C
atom_frac 0.4856047459812132 0.5533325198546566 0.6514340979182051 C
atom_frac 0.9854221839757071 0.9466855246981538 0.6514088899288523 C
atom_frac 0.5145893648796543 0.0533041372183760 0.1514184327405488 C
atom_frac 0.9856602540499109 0.5534167266387586 0.8485862051335005 C
atom_frac 0.5144432761852683 0.4466586991485074 0.3485760526616771 C
atom_frac 0.7223714890006220 0.1535258532625789 0.4902134297902379 C
atom_frac 0.7776078618752819 0.8464731232580435 0.9902328934728286 C
atom_frac 0.7223187817754066 0.3464908467095286 0.0098098133728755 C
atom_frac 0.7776629520171311 0.6535154779822462 0.5097874867179611 C
atom_frac 0.2776092692383116 0.8465044684920286 0.5097833385336157 C
atom_frac 0.2223387825378964 0.1535491511498180 0.0097674775462124 C
atom_frac 0.2776229928527414 0.6535124539491762 0.9902018809704741 C
atom_frac 0.2223129432250417 0.3464596462108034 0.4902067073648196 C
atom_frac 0.0247070310658870 0.0200031563275758 0.4704946101134694 C
atom_frac 0.4752721371218839 0.9800125719466241 0.9704832135540755 C
atom_frac 0.0246637301210129 0.4799532911662896 0.0295049590824163 C
atom_frac 0.4753697625757027 0.5200147193970894 0.5295378720423826 C
atom_frac 0.9752873768482785 0.9800099153558579 0.5295124522282038 C
atom_frac 0.5247125231689437 0.0200010751144006 0.0295084075020782 C
atom_frac 0.9753784437890329 0.5200339026890862 0.9704624706398872 C
atom_frac 0.5246704633599889 0.4799690255615803 0.4704810284478070 C
atom_frac 0.1343952077264277 0.0695951771550440 0.4744476734343762 C
atom_frac 0.3655977325874460 0.9304143542293276 0.9744365828080600 C
atom_frac 0.1343163927248341 0.4303201601821769 0.0255606671954212 C
atom_frac 0.3657315947881230 0.5696563456103689 0.5255952904295710 C
atom_frac 0.8655962771738783 0.9304115699120462 0.5255557858583727 C
atom_frac 0.6343849789576551 0.0695958431385790 0.0255576117374332 C
atom_frac 0.8657257826742536 0.5696601341018027 0.9744165418980015 C
atom_frac 0.6343076577367981 0.4303199245710942 0.4744153746331889 C
atom_frac 0.9675966209840535 0.0132710336341049 0.4040193364228841 C
atom_frac 0.5323848800336251 0.9867441087089691 0.9040172417702335 C
atom_frac 0.9674270778790445 0.4866594173103068 0.0959480938569826 C
atom_frac 0.5325593397057630 0.5132692174145888 0.5959920385168401 C
atom_frac 0.0323919386290683 0.9867408883174710 0.5959774317127610 C
atom_frac 0.4676144038400665 0.0132563130167114 0.0959820998167800 C
atom_frac 0.0326141193344895 0.5133381262397664 0.9040213948203257 C
atom_frac 0.4674847835857889 0.4867220018827182 0.4040201708771392 C
atom_frac 0.9271183086840795 0.2196038125452802 0.4718452858654912 C
atom_frac 0.5728682613247642 0.7803870897862384 0.9718266809181696 C
atom_frac 0.9271024749371648 0.2803791880973563 0.0281500667157459 C
atom_frac 0.5728778914577362 0.7196133603652159 0.5281675452541491 C
atom_frac 0.0728877985869119 0.7803948837665049 0.5281525116084893 C
atom_frac 0.4271105562752454 0.2195966587154103 0.0281577338286567 C
atom_frac 0.0728675606316855 0.7196528589545039 0.9718250838336715 C
atom_frac 0.4271223648150908 0.2803991358323756 0.4718323111937720 C
atom_frac 0.7550018756667143 0.1417946760444124 0.5590263250787757 C
atom_frac 0.7449541209788676 0.8582034795899249 0.0590356819267583 C
atom_frac 0.7549436093349655 0.3582557999246632 0.9410093716931911 C
atom_frac 0.7450185878574869 0.6417668730734436 0.4409820240956889 C
atom_frac 0.2449506130083066 0.8582488721588819 0.4409750756455110 C
atom_frac 0.2549662063549006 0.1418153465859930 0.9409569683009380 C
atom_frac 0.2449591746700079 0.6417555530343435 0.0590028372701994 C
atom_frac 0.2549319657831504 0.3582019281359125 0.5590168021618566 C
atom_frac 0.1796121299008675 0.1086994850142773 0.4181099547161297 C
atom_frac 0.3203839062529639 0.8913093607251242 0.9180938687541766 C
atom_frac 0.1795014880232415 0.3912057848651359 0.0819044808831819 C
atom_frac 0.3205434058410930 0.6087616322641126 0.5819509535973281 C
atom_frac 0.8203861784292101 0.8913055366724552 0.5818940192963706 C
atom_frac 0.6796124528515435 0.1086939360502654 0.0819034140212906 C
atom_frac 0.8205397107337120 0.6087842840773093 0.9180711842008192 C
atom_frac 0.6794958456746371 0.3912198127069644 0.4180591968206784 C
atom_frac 0.8734554827277561 0.1694527959047605 0.5846813178156438 C
atom_frac 0.6264983999065876 0.8305410205620165 0.0846739343088316 C
atom_frac 0.8733973614632619 0.3305910438037927 0.9153313231023145 C
atom_frac 0.6265503808258330 0.6694256192950193 0.4153313124958586 C
atom_frac 0.1265087041885522 0.8305832768839139 0.4153247152468110 C
atom_frac 0.3734268030205428 0.1694668805552766 0.9153089363525737 C
atom_frac 0.1265132163749385 0.6694387074798629 0.0846541212978735 C
atom_frac 0.3734108929054686 0.3305535308942710 0.5846736904383005 C
atom_frac 0.9583721329634683 0.2091940335277088 0.5411358399630115 C
atom_frac 0.5415988940202040 0.7908058377920784 0.0411204915437580 C
atom_frac 0.9583366168163748 0.2908143032091672 0.9588590851551186 C
atom_frac 0.5416212731260900 0.7091963028518649 0.4588803387391564 C
atom_frac 0.0416076532043448 0.7908230639088528 0.4588671046923735 C
atom_frac 0.4583575026294823 0.2091894117508417 0.9588634085284298 C
atom_frac 0.0415993028815294 0.7092194709551266 0.0411098887536170 C
atom_frac 0.4583672881335730 0.2908075695061357 0.5411220910879492 C
atom_frac 0.7754918792183145 0.2006512729298890 0.3711540213558777 C
atom_frac 0.7245256282109054 0.7993432470476095 0.8711476290366915 C
atom_frac 0.7754601986780542 0.2993054259553675 0.1288491420635580 C
atom_frac 0.7245564868235448 0.7006817754749052 0.6288413601395603 C
atom_frac 0.2245366476925880 0.7993428220964562 0.6288458350019182 C
atom_frac 0.2754804806692518 0.2006462494472316 0.1288393594523995 C
atom_frac 0.2245585793908659 0.7006967193915303 0.8711496849298326 C
atom_frac 0.2754661897784914 0.2993220945021378 0.3711548933526884 C
atom_frac 0.1724719580789795 0.5188439052516288 0.3004181704964211 C
atom_frac 0.3274550788921644 0.4810553155051310 0.8004214319702000 C
atom_frac 0.1727912927751518 0.9811431630907065 0.1994694896801761 C
atom_frac 0.3272836171405443 0.0188821294472277 0.6994922961769061 C
atom_frac 0.8275409762964828 0.4811369668866661 0.6996156563653881 C
atom_frac 0.6726504543214559 0.5189232498543321 0.1995707039433582 C
atom_frac 0.8272187114960944 0.0188653075621588 0.8005272785159361 C
atom_frac 0.6727449081067930 0.9811217404323077 0.3005219721301983 C
atom_frac 0.0713393814966210 0.5373035820758645 0.4162859327294298 C
atom_frac 0.4286098249250969 0.4626298854528982 0.9162783879446647 C
atom_frac 0.0713883128882671 0.9626435529702210 0.0836995801647831 C
atom_frac 0.4286303117451311 0.0373641723509692 0.5837171206859109 C
atom_frac 0.9286530842498519 0.4626738415317820 0.5837458351592131 C
atom_frac 0.5714148047143651 0.5373555851371847 0.0837194094559308 C
atom_frac 0.9286070702496189 0.0373660686066728 0.9162966732671690 C
atom_frac 0.5713718977031659 0.9626299246021760 0.4162930297096706 C
atom_frac 0.1466908729551548 0.5665581921726571 0.3573077846384577 C
atom_frac 0.3531921426742882 0.4333670344798790 0.8573482117011791 C
atom_frac 0.1468241413891818 0.9333748383663409 0.1426388182853131 C
atom_frac 0.3531992672742703 0.0666330817050280 0.6426527504741768 C
atom_frac 0.8533015919859038 0.4334226811578077 0.6427152332531633 C
atom_frac 0.6468597789939068 0.5666207343218874 0.1426573064813397 C
atom_frac 0.8531624685558939 0.0666382336790363 0.8573584645632831 C
atom_frac 0.6468185384523506 0.9333569892286350 0.3573491646156767 C
atom_frac 0.2545001002899241 0.5447886080530467 0.2481785735139255 C
atom_frac 0.2453570531289486 0.4551342150091957 0.7482082066271685 C
atom_frac 0.2551020789290562 0.9552788956602786 0.2516352426478861 C
atom_frac 0.2449725282281960 0.0447434964180928 0.7516542913607366 C
atom_frac 0.7455167318887631 0.4551980136085804 0.7518557681452619 C
atom_frac 0.7547572516228198 0.5448489494669675 0.2517767234700941 C
atom_frac 0.7449098764018273 0.0447215252267839 0.7483646137080483 C
atom_frac 0.7550696412091609 0.9552707221620766 0.2483610065550436 C
atom_frac 0.2024075849476786 0.6405736778963701 0.3603905171730161 C
atom_frac 0.2973127421347712 0.3593884593361664 0.8604749185050476 C
atom_frac 0.2025528263720062 0.8593409790274013 0.1395725756446353 C
atom_frac 0.2974402708745245 0.1406559183435832 0.6395702887358040 C
atom_frac 0.7975546641007654 0.3594048977448169 0.6396448535422934 C
atom_frac 0.7026797180672162 0.6406159878896817 0.1395367760952979 C
atom_frac 0.7974406097535647 0.1406565682600985 0.8604303688364751 C
atom_frac 0.7025531675113541 0.8593289792448575 0.3604208173017226 C
atom_frac 0.2840566940455673 0.6658008307658748 0.3079491439633060 C
atom_frac 0.2155557278979501 0.3341895045778644 0.8080609674547714 C
atom_frac 0.2845252439260548 0.8342063835828528 0.1919138514316855 C
atom_frac 0.2154617060782300 0.1657962441086057 0.6919083068753622 C
atom_frac 0.7158948298467890 0.3341944200082025 0.6920903445706086 C
atom_frac 0.7844406303435176 0.6658189671380442 0.1919450654234608 C
atom_frac 0.7154535717798111 0.1657882897187122 0.8080844605703561 C
atom_frac 0.7845395275316916 0.8342018774088732 0.3080807405288937 C
atom_frac 0.3114490944282480 0.6176902922365530 0.2520189487615595 C
atom_frac 0.1882473428274523 0.3822752158738184 0.7521013217638950 C
atom_frac 0.3121659021443222 0.8824063884376445 0.2477532081569223 C
atom_frac 0.1878578992543964 0.1176020809547893 0.7477626875669472 C
atom_frac 0.6885365440928338 0.3823089810665224 0.7480184811524069 C
atom_frac 0.8118016523032169 0.6177234774454734 0.2478887552926848 C
atom_frac 0.6878226594871747 0.1175951839346823 0.7522445892682225 C
atom_frac 0.8121608772029063 0.8824086891141365 0.2522397424895502 C
atom_frac 0.1195148516139568 0.1011317566022356 0.3557289994638707 N
atom_frac 0.3804870137767864 0.8988773565048193 0.8557147046283758 N
atom_frac 0.1193749768052612 0.3988056982054218 0.1442725072928681 N
atom_frac 0.3806290022548566 0.6011355794924854 0.6443173106705514 N
atom_frac 0.8804883299216969 0.8988755646857174 0.6442760040165750 N
atom_frac 0.6195307909544283 0.1011173141403177 0.1442805193113371 N
atom_frac 0.8806554978673089 0.6011952960524241 0.8557047019982773 N
atom_frac 0.6194082985755145 0.3988521903536367 0.3556923251074550 N
atom_frac 0.1658577277941048 0.1395701813956549 0.3003856942108029 O
atom_frac 0.3341599377816991 0.8604313780745302 0.8003782478403207 O
atom_frac 0.1657666255832382 0.3604289222704368 0.1996239784074091 O
atom_frac 0.3342644388311413 0.6395337058936833 0.6996600138013135 O
atom_frac 0.8341513027050809 0.8604336895689786 0.6996151915898066 O
atom_frac 0.6658607934358826 0.1395517929078522 0.1996221230543682 O
atom_frac 0.8342580001664003 0.6395755223526579 0.8003599221045403 O
atom_frac 0.6657631143401871 0.3604557894779604 0.3003460189937641 O
atom_frac 0.8687654263578820 0.2124164454716110 0.3292141301077436 O
atom_frac 0.6312419859302877 0.7875732590050575 0.8292055256226333 O
atom_frac 0.8687425492441889 0.2875208838075026 0.1707904419570667 O
atom_frac 0.6312978818928912 0.7124498582514394 0.6707949224176984 O
atom_frac 0.1312611499163836 0.7875839744800784 0.6707882998592394 O
atom_frac 0.3687650993451753 0.2124076127612753 0.1707814627653831 O
atom_frac 0.1312918245850625 0.7124795353546955 0.8291955173850309 O
atom_frac 0.3687384421110451 0.2875482611552514 0.3292085369841898 O
atom_frac 0.6561936130613901 0.1966329692236927 0.3536492039835223 O
atom_frac 0.8438379604317631 0.8033753542367352 0.8536574364611481 O
atom_frac 0.6561550802599926 0.3033310536962973 0.1463420070119312 O
atom_frac 0.8438641054218650 0.6966624671315530 0.6463296083439471 O
atom_frac 0.3438368632114503 0.8033605504852021 0.6463377846716866 O
atom_frac 0.1561847183104561 0.1966181662868039 0.1463475669435254 O
atom_frac 0.3438666255374939 0.6966538423464146 0.8536702021970654 O
atom_frac 0.1561692910491601 0.3033511765041439 0.3536517187818616 O
atom_frac 0.9245564157725494 0.1237514319127798 0.2035900253281184 O
atom_frac 0.5754499566617496 0.8762382053026486 0.7035985015373994 O
atom_frac 0.9244905151411303 0.3762462892120198 0.2964181703398694 O
atom_frac 0.5755246343602279 0.6237475215731509 0.7964353820456579 O
atom_frac 0.0754574882715815 0.8762524386338698 0.7964051987056989 O
atom_frac 0.4245493282942121 0.1237570417088563 0.2964059870681197 O
atom_frac 0.0755224143442206 0.6237570064809078 0.7035806566395947 O
atom_frac 0.4245087654712734 0.3762505980373875 0.2035685920504022 O
atom_frac 0.0771518207821629 0.5813962502928476 0.4717488827792025 O
atom_frac 0.4228546904680996 0.4185648947361076 0.9717736576666951 O
atom_frac 0.0770825236248456 0.9185535656935572 0.0282495530048834 O
atom_frac 0.4229207072791041 0.0814408544102676 0.5282485609821349 O
atom_frac 0.9228328457554512 0.4185874984130962 0.5282720762775098 O
atom_frac 0.5771553148740621 0.5814395513756594 0.0282416399751000 O
atom_frac 0.9229040888728473 0.0814468569545639 0.9717544208951664 O
atom_frac 0.5770815042695503 0.9185411677710821 0.4717466627277530 O
atom_frac 0.0100519160023680 0.4745189648429785 0.4153300854596438 O
atom_frac 0.4899157798537602 0.5254144700860479 0.9153087119448171 O
atom_frac 0.0101862051991759 0.0254595542256055 0.0846729473295724 O
atom_frac 0.4898451206753335 0.9745522266545096 0.5846816299862567 O
atom_frac 0.9899454231940580 0.5254590333410007 0.5846970500856443 O
atom_frac 0.5101302945437068 0.4745681244008467 0.0847024679363741 O
atom_frac 0.9898257480102117 0.9745517912266525 0.9153263944521013 O
atom_frac 0.5101873038812882 0.0254487679173465 0.4153228588485758 O
