#=======================================================
# FHI-aims file: ./geometry.in
# Created using the Atomic Simulation Environment (ASE)
# Fri Jan 14 15:06:22 2022
#=======================================================
lattice_vector 12.1307647450000005 19.1671375160000004 -7.2052017069999996 
lattice_vector 10.5386235230000000 -19.1667394649999991 -9.3851598119999995 
lattice_vector -0.0138024430000000 0.0249202020000000 -23.8003197980000003 
atom_frac 0.0547796540907651 0.9547372141246058 0.4879686621181068 Zn
atom_frac 0.0547838136957708 0.1000255612565724 0.4572588010048405 Zn
atom_frac 0.9452133378888727 0.9879550087979752 0.4547405955712594 Zn
atom_frac 0.9452123602632195 0.9572524448893636 0.6000321522503070 Zn
atom_frac 0.9426957328303444 0.5427213915049764 0.0120691699272086 Zn
atom_frac 0.0573119862408901 0.5120689284108479 0.0427371085616955 Zn
atom_frac 0.9427129604104819 0.3999796676964992 0.0452296387062604 Zn
atom_frac 0.0573053649008343 0.5452480493580724 0.8999724956800533 Zn
atom_frac 0.9139397324817862 0.8404725652713055 0.7500000289178602 H
atom_frac 0.9082607923587953 0.8029572020898712 0.8311323668158296 H
atom_frac 0.0904194444571330 0.6638642583118894 0.7500482202856631 H
atom_frac 0.1340381459762340 0.7393154753069525 0.6689159796880660 H
atom_frac 0.9095420680414104 0.6595252293657125 0.9265714262784714 H
atom_frac 0.8659358901827966 0.6970507024333443 0.8947327257463158 H
atom_frac 0.0860606507921489 0.8360659250280026 0.5734878122687447 H
atom_frac 0.0917247964044633 0.7606091073217344 0.6053244845435160 H
atom_frac 0.9139328226463733 0.0734767940662592 0.3360517118795983 H
atom_frac 0.9082679416899353 0.1053194606946447 0.2605967633557000 H
atom_frac 0.0904450687296360 0.4265618341892861 0.1595681942539429 H
atom_frac 0.1340549557354293 0.3947281348635059 0.1970910649910991 H
atom_frac 0.9095738699370556 0.2500483148763949 0.1638613866095326 H
atom_frac 0.8659544151585975 0.1689113996777608 0.2393011244390665 H
atom_frac 0.0860623070496302 0.2499821748760667 0.3404925280733194 H
atom_frac 0.0917294993733790 0.3311023671536973 0.3030023077786410 H
atom_frac 0.1773354610952679 0.0886683414458744 0.4113060564460512 C
atom_frac 0.0000012576790027 0.1393940992356448 0.3606020890826044 C
atom_frac 0.9999835591790855 0.9096623801868519 0.4096856690233394 C
atom_frac 0.8226623128427091 0.9112984990390133 0.5886479748260172 C
atom_frac 0.0000080509584277 0.8606178611615719 0.6394013171384569 C
atom_frac 0.9999642987850879 0.0903520157715434 0.5902970018614153 C
atom_frac 0.0000216788568180 0.5886690199690535 0.0886917061869994 C
atom_frac 0.0000141075135572 0.3606431716774239 0.1393773100266813 C
atom_frac 0.8193467080750595 0.4096488292282461 0.0903425663813024 C
atom_frac 0.0000400038719519 0.4113301133782131 0.9113231712253549 C
atom_frac 0.9999827901549879 0.6393646173682587 0.8606427709843913 C
atom_frac 0.1806575936493004 0.5903162962199887 0.9096920966592421 C
atom_frac 0.9999952269575019 0.8045805768941111 0.6954303777608218 C
atom_frac 0.9999834868643944 0.6953755795892821 0.8046306306890258 C
atom_frac 0.9564140793436380 0.7772543526132341 0.7669076501484822 C
atom_frac 0.0441261297385936 0.7232629104565975 0.7331470535712299 C
atom_frac 0.9558468802081631 0.7227230887435783 0.8208821942407101 C
atom_frac 0.0435722477478959 0.7766829925509597 0.6791799141772117 C
atom_frac 0.0000014040492147 0.1954123358354778 0.3045889275445433 C
atom_frac 0.0000104761868229 0.3046204146340302 0.1953966704268239 C
atom_frac 0.9564142231181093 0.1791659908353012 0.2766803642142223 C
atom_frac 0.0441500435643363 0.3208730860092360 0.2227463699721070 C
atom_frac 0.9558667036614209 0.2331383655029740 0.2232628309896469 C
atom_frac 0.0435867588472405 0.2668921956939059 0.2772762197146150 C
atom_frac 0.0000030437513913 0.6264080091628941 0.1264343849656840 C
atom_frac 0.9598125568460603 0.6591606999365428 0.1309032165433449 C
atom_frac 0.9597355219606025 0.6940361669573747 0.1660364932167939 C
atom_frac 0.9999532651545591 0.6985137036795807 0.1985709573314411 C
atom_frac 0.0402012791569034 0.6660183741807020 0.1941080134464812 C
atom_frac 0.0401851537793119 0.6309107383330924 0.1592033126945084 C
atom_frac 0.9999429579732176 0.7338354796938518 0.2339172787137970 C
atom_frac 0.9999452689110195 0.7644670869929584 0.2645648004957410 C
atom_frac 0.9999495625785780 0.7998024041714730 0.2998984208701074 C
atom_frac 0.9556342914415691 0.8272604481419210 0.3094517520179565 C
atom_frac 0.9555590972564115 0.8622143409504378 0.3445001852445559 C
atom_frac 0.9999747188279996 0.8719408343053702 0.3719814039273145 C
atom_frac 0.0443827350322789 0.8444559741642975 0.3622627445022176 C
atom_frac 0.0442763517841199 0.8093848430932624 0.3273445028818145 C
atom_frac 0.0000603594623597 0.3735938817181008 0.8735755229194877 C
atom_frac 0.0402334269437147 0.4092866980555954 0.8006307955126883 C
atom_frac 0.0402795176918359 0.3742146343136596 0.7656978543993419 C
atom_frac 0.0000242658921720 0.3014632619120051 0.8014658807426756 C
atom_frac 0.9597895130255625 0.2657135831739981 0.8742079390810885 C
atom_frac 0.9598500758319232 0.3006592575894943 0.9092727155513103 C
atom_frac 0.0000041613998079 0.2661366449707216 0.7661243725358490 C
atom_frac 0.9999953058626402 0.2355035757463143 0.7354730343581721 C
atom_frac 0.9999712299306436 0.2001625680367168 0.7001434450955699 C
atom_frac 0.0443069319265489 0.2349250002375528 0.6283743695176794 C
atom_frac 0.0443874621342317 0.1999649773134209 0.5933351414193311 C
atom_frac 0.9999889952946147 0.1280742816994122 0.6279966029625328 C
atom_frac 0.9555648885884834 0.0933886025548176 0.6998895567527796 C
atom_frac 0.9556493424375744 0.1283930312887875 0.7348823359362058 C
atom_frac 0.7439150726716760 0.3719450452893013 0.1280599665495857 C
atom_frac 0.7067036249310733 0.4066267603442245 0.1377843127096482 C
atom_frac 0.6367055079391689 0.3715987237940369 0.1727071322354093 C
atom_frac 0.5996853479747912 0.2998323962233231 0.2001545017953388 C
atom_frac 0.6367041323206664 0.2650813627318558 0.1905985879613752 C
atom_frac 0.7067054160228992 0.3000477092870285 0.1555516589131472 C
atom_frac 0.5290144209821717 0.2644957100783855 0.2354800242099487 C
atom_frac 0.4677409226263194 0.2338434209099419 0.2661029130443353 C
atom_frac 0.3970714736017698 0.1985097796563764 0.3014297284730745 C
atom_frac 0.3600938682368237 0.2342752114552695 0.3059064251318945 C
atom_frac 0.2900909810596275 0.1993607951427451 0.3407955487263408 C
atom_frac 0.2528258503039850 0.1264078781489886 0.3735534097587632 C
atom_frac 0.2900501476920140 0.0906981876668098 0.3690766875981382 C
atom_frac 0.3600681609687014 0.1257656855990774 0.3339528746335035 C
atom_frac 0.2560875780035020 0.6280418939816744 0.8719644936839187 C
atom_frac 0.2933066183394358 0.6377512658413380 0.9066566872119638 C
atom_frac 0.3633000243636884 0.6726821005159566 0.8716236254115657 C
atom_frac 0.4003131084200575 0.7001242325794694 0.7998474666909698 C
atom_frac 0.3632774373001622 0.6905699945383148 0.7651049726679060 C
atom_frac 0.2932754355690291 0.6555151849790378 0.8000802813748746 C
atom_frac 0.4709757860042812 0.7354495232284110 0.7645100279323742 C
atom_frac 0.5322589419810909 0.7660915871951703 0.7338432901092418 C
atom_frac 0.6029261201294244 0.8014297299536323 0.6985086644820129 C
atom_frac 0.6399215428554255 0.8059123559316391 0.7342615603701577 C
atom_frac 0.7099365343645160 0.8408080341701523 0.6993261620053276 C
atom_frac 0.7471719888259823 0.8735522292526667 0.6263885511435918 C
atom_frac 0.7099155925387276 0.8690768628645102 0.5906861686413266 C
atom_frac 0.6399117515565962 0.8339540725575746 0.6257531257956258 C
atom_frac 0.9114227794049298 0.7996523451432229 0.7890150275376229 N
atom_frac 0.0886148856379734 0.7003701886361571 0.7110390057971754 N
atom_frac 0.9113499102261426 0.7003389813787991 0.8882648211360405 N
atom_frac 0.0885686526345281 0.7995644518929482 0.6117924025989366 N
atom_frac 0.9114276983232585 0.1117840039133499 0.2995501283844604 N
atom_frac 0.0886442602422051 0.3882559206730677 0.2003736253038041 N
atom_frac 0.9113738871443784 0.2110354655195650 0.2003660363896388 N
atom_frac 0.0885722366799370 0.2889966937987368 0.2996803855232031 N
atom_frac 0.9999989609571001 0.9999910362867441 0.4999983275180639 O
atom_frac 0.1486545206914371 0.0290183049838078 0.4199264064029151 O
atom_frac 0.0475944972013522 0.1548880040713244 0.3763110517995045 O
atom_frac 0.9752386430799048 0.9508114058970919 0.3973207901822492 O
atom_frac 0.1486760242081147 0.1196522456776776 0.4313615907757153 O
atom_frac 0.0247254065183353 0.8973054693494760 0.4508344139822428 O
atom_frac 0.9524113620086536 0.0760888606180713 0.3926862324203242 O
atom_frac 0.8513240326753289 0.9199085428661248 0.5289912087816976 O
atom_frac 0.9524391296898428 0.8763359148244875 0.6549059625926502 O
atom_frac 0.8513152961398018 0.9313205984941817 0.6196546536833623 O
atom_frac 0.0475791924925628 0.8926820236685135 0.5761127994909784 O
atom_frac 0.0247610017561257 0.1274690234039539 0.5243952576302248 O
atom_frac 0.9752089627064744 0.0244642120730702 0.6273979637240007 O
atom_frac 0.0000096353490234 0.5000117442973178 0.9999979264673371 O
atom_frac 0.9489868383379160 0.5685827255925561 0.0800850023291915 O
atom_frac 0.0312127267547809 0.4239370366487238 0.1236789754808143 O
atom_frac 0.8481365555254359 0.3725478839371662 0.1026571758162546 O
atom_frac 0.0510523904068591 0.5800589577042033 0.0686482881291042 O
atom_frac 0.8481293185345533 0.4755471273668165 0.0492216662551500 O
atom_frac 0.9688195637212971 0.3451521395017707 0.1072755180893453 O
atom_frac 0.9490166755370024 0.3803583629119699 0.9709600376727608 O
atom_frac 0.0311861860199584 0.6072702735712241 0.8451457309578529 O
atom_frac 0.0510834349147514 0.4709732691225456 0.8803589333038460 O
atom_frac 0.9687683489150060 0.6236470836474768 0.9239493955975602 O
atom_frac 0.1518756790882420 0.5491948096507714 0.9755862206204211 O
atom_frac 0.1518652020605982 0.6026719492142619 0.8725860915128859 O
atom_frac 0.9208285655896090 0.6594853059506818 0.1001314048539328 F
atom_frac 0.0791932383286279 0.6001606687794451 0.1595286528443579 F
atom_frac 0.0793843447747164 0.6686373774502172 0.2246272817024320 F
atom_frac 0.9205573457232532 0.7245531705356927 0.1686427483958396 F
atom_frac 0.9120066134601139 0.8191760813476633 0.2844419743828443 F
atom_frac 0.0879042211431763 0.7843956988546309 0.3192471122513680 F
atom_frac 0.0898554045278601 0.8522620531121635 0.3849821428248958 F
atom_frac 0.9101118165764885 0.8849599493175831 0.3522620832507358 F
atom_frac 0.0792351183449610 0.4790393634551507 0.7613206108811923 F
atom_frac 0.9208421983065803 0.2613332671135353 0.9790289350141136 F
atom_frac 0.9205971707668538 0.1960249426366757 0.9107644966085501 F
atom_frac 0.0794688016792050 0.4107727417740392 0.6960084388411047 F
atom_frac 0.0879542947295987 0.3035443613184016 0.5928373796749327 F
atom_frac 0.9120231817181333 0.0928633246888211 0.8035010467796226 F
atom_frac 0.9100963924255862 0.0251906923033260 0.7375835028987369 F
atom_frac 0.0898637398987531 0.2376318358615777 0.5251492827820955 F
atom_frac 0.7372298909505232 0.4748253394473423 0.1150420776279405 F
atom_frac 0.7372182953609963 0.2623642393119354 0.1477746179373868 F
atom_frac 0.6036238427915491 0.1964608407770640 0.2155900472594041 F
atom_frac 0.6036364446697958 0.4071427027297859 0.1807916180777838 F
atom_frac 0.3932331398125228 0.3039706561039780 0.2753871704123155 F
atom_frac 0.3931799547034416 0.0891795648002614 0.3313465835135645 F
atom_frac 0.2596148939845477 0.0209497505638367 0.3998377184174017 F
atom_frac 0.2596629070767306 0.2386801294950800 0.3404952239384187 F
atom_frac 0.2627977775761178 0.6150250278890894 0.9748449191528722 F
atom_frac 0.2627456628435921 0.6477456197518238 0.7624048120649006 F
atom_frac 0.3963419933915515 0.7155613554799345 0.6964863689597111 F
atom_frac 0.3963987808277451 0.6807692323674603 0.9071583478756579 F
atom_frac 0.6067952415369929 0.7753959801647953 0.8039619997062815 F
atom_frac 0.6067733114849997 0.8313370240055419 0.5891864139397002 F
atom_frac 0.7403499884842686 0.8998422451314099 0.5209360978456419 F
atom_frac 0.7403626252177131 0.8404997375950956 0.7386473685612247 F
