#=======================================================
# FHI-aims file: ./geometry.in
# Created using the Atomic Simulation Environment (ASE)
# Fri Jan 14 15:06:22 2022
#=======================================================
lattice_vector 8.0534498380000006 0.0000000000000000 -0.9001830000000000 
lattice_vector -4.1466126020000003 9.9064795480000001 -2.1696330000000001 
lattice_vector 1.5609643790000001 -0.5990512510000000 13.4704312389999998 
atom_frac 0.5131199029760795 0.6566392634628357 0.5101290305265280 Zn
atom_frac 0.0979778023907159 0.3511074384825292 0.4612771578668458 Zn
atom_frac 0.4868405046076629 0.3433477670651897 0.4898539679083099 Zn
atom_frac 0.9019644732093894 0.6488768213653913 0.5386767150370133 Zn
atom_frac 0.3589225381305923 0.4373474739444632 0.3619787215840091 H
atom_frac 0.7945425506292876 0.0486016539352647 0.4162770552475621 H
atom_frac 0.6782758058926533 0.9531152932786073 0.4899533374825892 H
atom_frac 0.2477004538273065 0.6935031282568930 0.4353626774262338 H
atom_frac 0.3868212250816824 0.8492955968043461 0.4960167589211579 H
atom_frac 0.2118873502394933 0.5956712009876527 0.2575481975193696 H
atom_frac 0.3081932685656597 0.6170942378639666 0.0862554689632162 H
atom_frac 0.7331144488971684 0.9961704274813669 0.2399493631414912 H
atom_frac 0.0927074248049706 0.9457008609841751 0.2186728391719654 H
atom_frac 0.9302810657053655 0.8940375744271167 0.3009841744003339 H
atom_frac 0.1472538117897314 0.8879180405048926 0.3194249377537020 H
atom_frac 0.7240494522816476 0.2581391350065801 0.1827056721747269 H
atom_frac 0.8967907077672663 0.2245035001840066 0.2400952051884601 H
atom_frac 0.9327012262413206 0.3927065590373431 0.2362894580932320 H
atom_frac 0.2843766746647347 0.3346092788852459 0.8020181529472268 H
atom_frac 0.0831621251300234 0.3692166097443632 0.7987409965602693 H
atom_frac 0.2966791990679027 0.5027948358837904 0.8168696045720977 H
atom_frac 0.5680796040766439 0.8193671839861879 0.0777133014642644 H
atom_frac 0.6410534525586230 0.5626393028444738 0.6380000807807065 H
atom_frac 0.2055299926243492 0.9514573076964795 0.5838438011880456 H
atom_frac 0.3217225515797111 0.0469225469559404 0.5101354036887145 H
atom_frac 0.7523043305738638 0.3065487115923418 0.5646404064605051 H
atom_frac 0.6131874174635998 0.1507456363052455 0.5040279316738889 H
atom_frac 0.7881728493102783 0.4044601258097273 0.7424506059758540 H
atom_frac 0.6919678586558788 0.3830911879681480 0.9137699282185069 H
atom_frac 0.2670600229356666 0.0039503156017560 0.7601748931444376 H
atom_frac 0.9074180834030017 0.0542403628073345 0.7813873087579138 H
atom_frac 0.0697196191994323 0.1059377739912577 0.6990226474046253 H
atom_frac 0.8527203428721178 0.1120506117959934 0.6806881605158708 H
atom_frac 0.2757660216822800 0.7416294532034088 0.8172205792689481 H
atom_frac 0.1031811365790745 0.7754510466360857 0.7598514037250084 H
atom_frac 0.0670440411398019 0.6071863972165445 0.7635734423154972 H
atom_frac 0.7154848937681139 0.6652901126274743 0.1979344739415367 H
atom_frac 0.9167140648262375 0.6307066716251057 0.2012060621525222 H
atom_frac 0.7032090525715161 0.4971151534914783 0.1831080410584747 H
atom_frac 0.4321452393231624 0.1808120708041301 0.9223769761440082 H
atom_frac 0.5718183715220277 0.8932461236544003 0.3396778739263411 C
atom_frac 0.4223072498845681 0.7792531682846828 0.3439865520394321 C
atom_frac 0.3273066792414099 0.6827219714946154 0.2525013466363148 C
atom_frac 0.3797566511902062 0.6953128311109610 0.1567183787797433 C
atom_frac 0.5255956559406415 0.8084918428830720 0.1520369185339874 C
atom_frac 0.6185665167427956 0.9073846574951929 0.2426629631479429 C
atom_frac 0.1379469289951913 0.0910454466728794 0.3671970554041478 C
atom_frac 0.0728613464017159 0.9449265251005557 0.2988146589670889 C
atom_frac 0.7651168806595052 0.3315250676291228 0.3489289134582307 C
atom_frac 0.8325126548979680 0.2985847102344720 0.2446924616860926 C
atom_frac 0.2237569386669095 0.3724442740651668 0.6623833655866845 C
atom_frac 0.2186503914698578 0.3946305961083993 0.7771287157580317 C
atom_frac 0.4282630972433382 0.1068507025105774 0.6604014238349194 C
atom_frac 0.5777431449456570 0.2208464519371134 0.6560554855820866 C
atom_frac 0.6727786674712065 0.3174047923643499 0.7475221581576931 C
atom_frac 0.6203907606695225 0.3048442010465494 0.8433215724877100 C
atom_frac 0.4745894586324154 0.1916634416370613 0.8480409043947928 C
atom_frac 0.3815878478964336 0.0927374749883256 0.7574341903928357 C
atom_frac 0.8620551535503794 0.9089319694751695 0.6328272672768235 C
atom_frac 0.9271571023837024 0.0550366425834667 0.7012411266021630 C
atom_frac 0.2347710910880352 0.6683849414038646 0.6509989780633630 C
atom_frac 0.1673432282259810 0.7012942241250641 0.7552223414445435 C
atom_frac 0.7761716048680612 0.6275123394111689 0.3375807264516482 C
atom_frac 0.7812331037261445 0.6052873695194876 0.2228305951864229 C
atom_frac 0.6709804205252753 0.9914003525589835 0.4298919601213314 N
atom_frac 0.3768307396944479 0.7582463323152169 0.4411672339980440 N
atom_frac 0.3290711414521895 0.0086673571522198 0.5702066322262951 N
atom_frac 0.6231763021967324 0.2418108635434990 0.5588576496903385 N
atom_frac 0.3924712253385251 0.0030894261554621 0.0348139445320115 Cl
atom_frac 0.0037458779603200 0.5814845394321326 0.9791728109797972 Cl
atom_frac 0.6074838635756592 0.9965575789191732 0.9648377713966311 Cl
atom_frac 0.9964705058022998 0.4186380923587905 0.0208491342690067 Cl
atom_frac 0.3382039225490913 0.4485607043036879 0.4341989817845473 O
atom_frac 0.0307089682880672 0.1552357533518389 0.3712700963851034 O
atom_frac 0.2913376754747787 0.1421290746771859 0.4156218204203980 O
atom_frac 0.8723576926438951 0.3711976124011684 0.4312678674610382 O
atom_frac 0.6051956349657246 0.3219135170695964 0.3523065392524813 O
atom_frac 0.0817595854551385 0.3540924417588087 0.6081608740101814 O
atom_frac 0.3687771184446120 0.3757648367412969 0.6271528010467406 O
atom_frac 0.6617559690716844 0.5514280001928782 0.5657783128563807 O
atom_frac 0.9693095134732631 0.8447434265919896 0.6286999287828791 O
atom_frac 0.7086457719265057 0.8578599097661339 0.5844268759357262 O
atom_frac 0.1275482057891750 0.6287046995445210 0.5686495891639680 O
atom_frac 0.3947047776937609 0.6780330366317316 0.6476414323698165 O
atom_frac 0.9181742600134085 0.6458471127935467 0.3917882044855005 O
atom_frac 0.6311800200388973 0.6242435871902715 0.3728334246823906 O
