#=======================================================
# FHI-aims file: ./geometry.in
# Created using the Atomic Simulation Environment (ASE)
# Fri Jan 14 15:06:22 2022
#=======================================================
lattice_vector 7.4274295270000001 -0.0186485520000000 0.8775396540000000 
lattice_vector -0.1905975060000000 11.0534949139999998 5.0919862929999997 
lattice_vector 0.0964014120000000 -0.0001589500000000 12.6162706399999998 
atom_frac 0.9999972451203476 0.0000024834334411 0.9999999586174939 Mn
atom_frac 0.0000024787267421 0.4999993295856696 0.0000022266532157 Mn
atom_frac 0.0391009949837908 0.2754171847347849 0.9013762562139150 H
atom_frac 0.9608945031530000 0.7245830418112150 0.0986242360071684 H
atom_frac 0.0338064234455828 0.4590831887117801 0.7124925007632402 H
atom_frac 0.9661863764859646 0.5409179380049309 0.2875101937033336 H
atom_frac 0.0167907064180142 0.2203908165370549 0.5388318518498282 H
atom_frac 0.9832088803271759 0.7796112262861498 0.4611684155524715 H
atom_frac 0.0233888857478775 0.0456066772904009 0.7361221881382677 H
atom_frac 0.9766120412578373 0.9543944630838439 0.2638767650187576 H
atom_frac 0.2980783606490292 0.9076809893743489 0.6824144398839779 H
atom_frac 0.7019279421730218 0.0923183506465364 0.3175816954738410 H
atom_frac 0.2627231695816263 0.7145990627613302 0.8663044476427189 H
atom_frac 0.7372898730458531 0.2854030027727462 0.1336964599080446 H
atom_frac 0.7567423100334665 0.8448732719872892 0.6308057049420344 H
atom_frac 0.2432583519337754 0.1551206304977626 0.3691993584052753 H
atom_frac 0.7389951843903332 0.6602953962533320 0.8217307325082503 H
atom_frac 0.2610110302352027 0.3397057531503976 0.1782757754903558 H
atom_frac 0.4936920830620721 0.8957519040984823 0.2043011977308922 H
atom_frac 0.5063063635441978 0.1042528507235119 0.7956885428725330 H
atom_frac 0.4797486539902636 0.6689977413347779 0.2926303904372958 H
atom_frac 0.5202605075375361 0.3310052221931555 0.7073601204790450 H
atom_frac 0.4760900475957400 0.6742364276257506 0.6324855961276653 H
atom_frac 0.5239028861977885 0.3257646991684878 0.3675067848423340 H
atom_frac 0.4965516982355851 0.9015840011335499 0.5297320428104798 H
atom_frac 0.5034345429851967 0.0984189237596667 0.4702608705753876 H
atom_frac 0.6241927304445554 0.1219079698562311 0.0555784221652473 C
atom_frac 0.3758015039884057 0.8780949686169844 0.9444210634076387 C
atom_frac 0.3181090017165288 0.1275562844932808 0.0658674744848042 C
atom_frac 0.6818878382480024 0.8724457537555425 0.9341369489556043 C
atom_frac 0.0330240180436334 0.2671812036733244 0.8192878373272168 C
atom_frac 0.9669754979647749 0.7328172202410670 0.1807107250948762 C
atom_frac 0.0281538432603412 0.3689700562214853 0.7147622046667907 C
atom_frac 0.9718430687837126 0.6310319820690893 0.2852366653523859 C
atom_frac 0.0201696465140415 0.3534106918560127 0.6112002632694246 C
atom_frac 0.9798272832142130 0.6465922511617633 0.3887990329948040 C
atom_frac 0.0194990624347327 0.2354641546158547 0.6178433210672551 C
atom_frac 0.9805017880142942 0.7645351762801269 0.3821579529832277 C
atom_frac 0.0244572271816637 0.1386811668899242 0.7265241428286657 C
atom_frac 0.9755436792299080 0.8613199734723908 0.2734763970201399 C
atom_frac 0.6281328025749389 0.5536886109438085 0.1288315530496789 C
atom_frac 0.3718513122242300 0.4462971216038199 0.8711874702078575 C
atom_frac 0.3278335263256765 0.5640516190475111 0.1137578614914858 C
atom_frac 0.6721738738797853 0.4359422947989415 0.8862467285841688 C
atom_frac 0.1756624784305956 0.8514228671518893 0.7076493438613412 C
atom_frac 0.8243424030970700 0.1485737564031809 0.2923471941074426 C
atom_frac 0.1549608830142332 0.7462009727830367 0.8107039589554715 C
atom_frac 0.8450440103777197 0.2537983649297857 0.1892970311320213 C
atom_frac 0.0328849263975073 0.8866204652543530 0.6388617640576303 C
atom_frac 0.9671212586795477 0.1133770652644088 0.3611398655772151 C
atom_frac 0.8721173962459545 0.8165428080296097 0.6797672513877231 C
atom_frac 0.1278873617168088 0.1834538154538875 0.3202388067317444 C
atom_frac 0.8624900831675719 0.7150805318197017 0.7853438442425187 C
atom_frac 0.1375201184383528 0.2849188149345280 0.2146631139947673 C
atom_frac 0.4917048400477668 0.8441707530547404 0.2991013516564964 C
atom_frac 0.5082935329117646 0.1558312875737187 0.7008886969035617 C
atom_frac 0.4852133605637619 0.7182727058929856 0.3471209034250364 C
atom_frac 0.5147930497062063 0.2817284436240541 0.6528705310016465 C
atom_frac 0.4816745840897454 0.6555209184163004 0.4693564437348456 C
atom_frac 0.5183212334808545 0.3444856413334277 0.5306319586296696 C
atom_frac 0.4818072517033798 0.7216631897123876 0.5372099374104239 C
atom_frac 0.5181789895174019 0.2783397351808220 0.4627829759754434 C
atom_frac 0.4923213129946120 0.8475244573827611 0.4793932991724859 C
atom_frac 0.5076703011325493 0.1524775718723675 0.5205988093510072 C
atom_frac 0.7690693369071724 0.0831284190988626 0.0473620459348609 N
atom_frac 0.2309290302324456 0.9168754309601471 0.9526320284988544 N
atom_frac 0.4725315945909401 0.1725438514744937 0.0664026545747163 N
atom_frac 0.5274652585806194 0.8274572820650192 0.9335989625829768 N
atom_frac 0.1719574528932810 0.0934064115930653 0.0662974323111953 N
atom_frac 0.8280341319098669 0.9065983317959622 0.9337023017145687 N
atom_frac 0.0326989873995629 0.1536030966379087 0.8257860644045824 N
atom_frac 0.9673018984178511 0.8463980437124763 0.1742160621360043 N
atom_frac 0.0190263864335662 0.4490411548966762 0.4989447646872449 N
atom_frac 0.9809677817397784 0.5509599741042380 0.5010562484332157 N
atom_frac 0.7827920174596342 0.5494075512825702 0.0983716407848832 N
atom_frac 0.2172165390017327 0.4505818411405046 0.9016386568700909 N
atom_frac 0.4623857285114282 0.5570482505832642 0.1709995126799130 N
atom_frac 0.5376134429918552 0.4429420306789495 0.8290094937627616 N
atom_frac 0.1962757715678620 0.5688410164090527 0.0693477172330716 N
atom_frac 0.8037209873628087 0.4311574029249953 0.9306557945730277 N
atom_frac 0.0010641880396420 0.6791051226799638 0.8504186746427819 N
atom_frac 0.9989447556823662 0.3208951265709388 0.1495832510726558 N
atom_frac 0.0578063583755224 0.9935846707457973 0.5353874608938796 N
atom_frac 0.9421984157042189 0.0064101433131185 0.4646137780060330 N
atom_frac 0.4968843913070771 0.9094258313965613 0.3625517005557057 N
atom_frac 0.5031125928165069 0.0905762069357650 0.6374416160422457 N
atom_frac 0.4708968153456681 0.5277159839861343 0.5309926368651076 N
atom_frac 0.5291084180742374 0.4722896869423536 0.4689946766740363 N
