#=======================================================
# FHI-aims file: ./geometry.in
# Created using the Atomic Simulation Environment (ASE)
# Fri Jan 14 15:06:22 2022
#=======================================================
lattice_vector 11.3360658260000005 0.0000000000000000 0.0000000000000000 
lattice_vector -5.6533298360000002 9.9197311619999997 0.0000000000000000 
lattice_vector 0.0057205960000000 -0.0160817400000000 16.5198221449999991 
atom_frac 0.0000000003678693 0.0000000019627180 0.0000012106667882 Fe
atom_frac 0.4999988058055892 0.9999999724211863 0.5000011457447826 Fe
atom_frac 0.1580399127850498 0.0000835213885253 0.6994584989219916 Ag
atom_frac 0.3411353819112505 0.0002450277979449 0.1996431905290378 Ag
atom_frac 0.6588689797536134 0.9997560393324535 0.8003572849603486 Ag
atom_frac 0.8419565099853868 0.9999175477045910 0.3005431872341759 Ag
atom_frac 0.0460859805510339 0.7698903466722343 0.9405240482387782 H
atom_frac 0.4536025675601820 0.2306466563696077 0.4410483318796067 H
atom_frac 0.7756005551521810 0.2297899973642502 0.5593298716473567 H
atom_frac 0.7234272118062252 0.7704402846269574 0.0584824698183795 H
atom_frac 0.9539144731509663 0.2301117285500069 0.0594764272506012 H
atom_frac 0.5463954959702804 0.7693523955584780 0.5589527489431703 H
atom_frac 0.2243993956274792 0.7702110687847892 0.4406699985086320 H
atom_frac 0.2765717336805551 0.2295587663197693 0.9415180056710000 H
atom_frac 0.9281292215246921 0.5186961735652460 0.9381196639995650 H
atom_frac 0.5723123412627232 0.4818763797859733 0.4380210595784249 H
atom_frac 0.9091920873252520 0.4810165579679762 0.5618135545611196 H
atom_frac 0.5911536143613887 0.5193525085953397 0.0620121688362190 H
atom_frac 0.0718707290710370 0.4813048916024414 0.0618796008230262 H
atom_frac 0.4276857215320078 0.5181226682166766 0.5619775999107757 H
atom_frac 0.0908087452267949 0.5189845062183451 0.4381851049280740 H
atom_frac 0.4088453307575293 0.4806465403886762 0.9379870959863794 H
atom_frac 0.7469505802005684 0.1265360295860845 0.1606415599821247 H
atom_frac 0.7533015137005918 0.8734807530348618 0.6606402843933308 H
atom_frac 0.1202758224037411 0.8731342065197227 0.3393038950904525 H
atom_frac 0.3796471830047707 0.1266292922956680 0.8393704168417386 H
atom_frac 0.2530506317533324 0.8734640265084084 0.8393570995070760 H
atom_frac 0.2466991956988309 0.1265182959491540 0.3393589804292674 H
atom_frac 0.8797271545664032 0.1268658535001990 0.6606971857323245 H
atom_frac 0.6203527677748896 0.8733717738533785 0.1606294533142503 H
atom_frac 0.9452961320367023 0.7105210452825260 0.9667955175191736 C
atom_frac 0.5545765649835347 0.2899970098630363 0.4671369904751472 C
atom_frac 0.7345020344946249 0.2895342510167964 0.5330226876967359 C
atom_frac 0.7649829401666537 0.7107957959926240 0.0325342485701441 C
atom_frac 0.0547043216652909 0.2894810299397080 0.0332049579702058 C
atom_frac 0.4454214983629896 0.7100020410836904 0.5328634850142322 C
atom_frac 0.2654974135466262 0.7104658070404143 0.4669771824592459 C
atom_frac 0.2350170107969376 0.2892052711377815 0.9674662269192353 C
atom_frac 0.8790640014879614 0.5703277989979085 0.9655945360663551 C
atom_frac 0.6212125169510402 0.4301604522609210 0.4654995636455723 C
atom_frac 0.8086190847568560 0.4296894410394643 0.5343786344983101 C
atom_frac 0.6915304739047984 0.5706498022466563 0.0343635660854744 C
atom_frac 0.1209359491077677 0.4296732661697719 0.0344047287562361 C
atom_frac 0.3787864281678778 0.5698385967230948 0.5344997011770187 C
atom_frac 0.1913803631004640 0.5703106160363802 0.4656206303242882 C
atom_frac 0.3084698562767089 0.4293502558105546 0.9656363040705143 C
atom_frac 0.7501779839932539 0.5001295234292157 0.0000260293359204 C
atom_frac 0.7501642001587427 0.5001424620499294 0.4998691830649875 C
atom_frac 0.2498223463721843 0.4998705356093467 0.9999744461534590 C
atom_frac 0.2498338626359811 0.4998565859527275 0.5001294764242132 C
atom_frac 0.7192695212988268 0.2902310079134764 0.0568081176518049 C
atom_frac 0.7810236986974814 0.7099056968927898 0.5567596260583085 C
atom_frac 0.9291157376532267 0.7097395885288194 0.4431058600843086 C
atom_frac 0.5711051929772567 0.2903141921748755 0.9432274671744024 C
atom_frac 0.2807316904711430 0.7097690471996573 0.9431899365040053 C
atom_frac 0.2189748666517204 0.2900943582203368 0.4432384280974944 C
atom_frac 0.0708854746685361 0.2902604695283912 0.5568940100716802 C
atom_frac 0.4288929937058229 0.7096868749555300 0.0567730083149769 C
atom_frac 0.6391874328408420 0.1417313567717997 0.0582621284631273 C
atom_frac 0.8610270935169099 0.8583708273713527 0.5582632742079099 C
atom_frac 0.9974902405070197 0.8582060236705474 0.4416833266094429 C
atom_frac 0.5026526174282111 0.1417926065907764 0.9417226083580204 C
atom_frac 0.3608133998951359 0.8582697083958807 0.9417371363594640 C
atom_frac 0.1389723541564791 0.1416292287231329 0.4417353852812908 C
atom_frac 0.0025109718147434 0.1417940343866562 0.5583165435465389 C
atom_frac 0.4973473333514493 0.8582084595582630 0.0582772617979685 C
atom_frac 0.6676744657771962 0.0705187900486450 0.1161217102195380 C
atom_frac 0.8325158612841508 0.9295936273002852 0.6161567546343605 C
atom_frac 0.0970550029338853 0.9292855379730867 0.3838334301873302 C
atom_frac 0.4028855300027914 0.0705890742443387 0.8838993466052256 C
atom_frac 0.3323258642203798 0.9294812670271996 0.8838775546030533 C
atom_frac 0.1674839659750162 0.0704054216837235 0.3838425101882378 C
atom_frac 0.9029462095718088 0.0707145210654758 0.6161670453020489 C
atom_frac 0.5971153027331937 0.9294119909233487 0.1160999182173725 C
atom_frac 0.5359627482856553 0.0718619978032677 0.9999974488224125 C
atom_frac 0.9641265279829838 0.9281613035427939 0.4999835910763650 C
atom_frac 0.4640380846342609 0.9281390683457786 0.0000024213335763 C
atom_frac 0.0358732990922519 0.0718377444598630 0.5000150684128355 C
atom_frac 0.0849660846228489 0.9996820086486268 0.8112787100469132 C
atom_frac 0.4138351776982745 0.0002094782684381 0.3114071056483496 C
atom_frac 0.5861677994558008 0.9997905827328427 0.6885945805078180 C
atom_frac 0.9150329847522868 0.0003190614258557 0.1887235814426518 C
atom_frac 0.2567063909985379 0.0009441025888606 0.5972764060892997 C
atom_frac 0.2435773562723611 0.9999337407622164 0.0972462043416300 C
atom_frac 0.7564242358191180 0.0000653111658693 0.9027548764811471 C
atom_frac 0.7432890261111568 0.9990549493392251 0.4027246747334772 C
atom_frac 0.8894173872764169 0.7796363951350146 0.9994841261046757 N
atom_frac 0.6099472802423733 0.2207714045517619 0.5001312924243990 N
atom_frac 0.1105829430890282 0.2203636639035480 0.0005163493847036 N
atom_frac 0.3900512858425600 0.7792286544868006 0.4998691830649875 N
atom_frac 0.6775420439141443 0.3548866406409701 0.0000042373337550 N
atom_frac 0.8228346411243805 0.6453147970554695 0.4999024764016298 N
atom_frac 0.3224587888218409 0.6451144245267173 0.9999950274888362 N
atom_frac 0.1771648065490083 0.3546852590390230 0.5000961830875708 N
atom_frac 0.0567212446208460 0.9999870399565227 0.8794198794929000 N
atom_frac 0.4433220768232644 0.0003074297470747 0.3792885870685012 N
atom_frac 0.5566778746921202 0.9996936403274006 0.6207137044210569 N
atom_frac 0.9432804713589890 0.0000140310993189 0.1205830173300555 N
atom_frac 0.3261185060272425 0.0008608858087271 0.5447019901920385 N
atom_frac 0.1735341625633424 0.9996696670617526 0.0450416471478334 N
atom_frac 0.8264671738307071 0.0003324111045657 0.9549606443417316 N
atom_frac 0.6738795578710822 0.9991381680820768 0.4553003012975266 N
atom_frac 0.8169801373614333 0.3571632493216939 0.1015694954384116 O
atom_frac 0.6833473337472710 0.6430248007496431 0.6014992118427571 O
atom_frac 0.9598454412530231 0.6426530511695248 0.3983087676274764 O
atom_frac 0.5402437525775169 0.3573131224037668 0.8985417560619879 O
atom_frac 0.1830224591032632 0.6428378129019167 0.8984279533840009 O
atom_frac 0.3166517343403328 0.3569762624553263 0.3984988423130530 O
atom_frac 0.0401566533929341 0.3573470078690448 0.6016917078619102 O
atom_frac 0.4597521676384488 0.6426869395788798 0.1014605354275773 O
