#=======================================================
# FHI-aims file: ./geometry.in
# Created using the Atomic Simulation Environment (ASE)
# Fri Jan 14 15:06:22 2022
#=======================================================
lattice_vector 7.2061462640000000 -0.1173651480000000 0.5167473700000000 
lattice_vector 3.2177088039999999 8.5205476450000006 2.2506399180000001 
lattice_vector -0.0863716280000000 -0.1788001600000000 12.6878537060000003 
atom_frac 0.9999977591150399 0.9999987689192267 0.9999987333311536 Cd
atom_frac 0.3463605859927271 0.0945643430373977 0.8829932195355639 H
atom_frac 0.6536293845257151 0.9054446896031435 0.1170094491180650 H
atom_frac 0.4510754974463823 0.2062210294218687 0.7008694179749284 H
atom_frac 0.5489208764446477 0.7937798677190524 0.2991328566919905 H
atom_frac 0.9280172928825083 0.1812325329657439 0.5679164103261982 H
atom_frac 0.0719901347492000 0.8187590533420558 0.4320823368206420 H
atom_frac 0.8470353096792707 0.0712703481302412 0.7553123690591191 H
atom_frac 0.1529525946758884 0.9287338654466235 0.2446857214885655 H
atom_frac 0.3118737439107023 0.0928862927955620 0.3436181221572311 H
atom_frac 0.6881333261129614 0.9071124034618375 0.6563841072851702 H
atom_frac 0.3138590892702313 0.1945414539739402 0.2062280539861590 H
atom_frac 0.6861550214417637 0.8054631298814383 0.7937704798650599 H
atom_frac 0.0865494284232043 0.2088883682002417 0.2717302225024554 H
atom_frac 0.9134593366598055 0.7911125236598404 0.7282636668825193 H
atom_frac 0.9906388850471264 0.4929697676509758 0.2166436174141780 H
atom_frac 0.0093652631188874 0.5070229457251969 0.7833550633723617 H
atom_frac 0.2234641747496371 0.4934844122247026 0.1636494088329030 H
atom_frac 0.7765442661764155 0.5065142357675610 0.8363496207158291 H
atom_frac 0.1173116302163777 0.5973207081055989 0.2663938103657699 H
atom_frac 0.8826847212217503 0.4026800074907654 0.7335998277099164 H
atom_frac 0.3336842503378324 0.5582426177233512 0.4078850956015642 H
atom_frac 0.6663184934747122 0.4417594977353616 0.5921151272104481 H
atom_frac 0.4590804716942290 0.5572119891988901 0.2818859604491736 H
atom_frac 0.5409238259070722 0.4427865560280039 0.7181108916107062 H
atom_frac 0.5963913093137736 0.4719675281126142 0.4048444693385918 H
atom_frac 0.4036010727289681 0.5280391146177049 0.5951545842574788 H
atom_frac 0.6124059682440476 0.2985796528850172 0.2176566348448716 H
atom_frac 0.3876055733436775 0.7014214230136699 0.7823442022119380 H
atom_frac 0.6221206059199105 0.1214130936081402 0.3091762995478645 H
atom_frac 0.3778890332280229 0.8785891106059436 0.6908236266889459 H
atom_frac 0.7548780548106395 0.2366438516458799 0.3390312302866647 H
atom_frac 0.2451250335705952 0.7633606727211624 0.6609717038081727 H
atom_frac 0.6759975598703251 0.5521295904841352 0.0542948522674252 Au
atom_frac 0.3239901889260326 0.4478687417298628 0.9457027115729416 Au
atom_frac 0.4622246844865928 0.7497838794147497 0.0562091191768275 C
atom_frac 0.5377613194699437 0.2502214789815723 0.9437888456955079 C
atom_frac 0.8855164418859121 0.3522474069996162 0.0496758275247373 C
atom_frac 0.1144804765818821 0.6477428912331218 0.9503243642774706 C
atom_frac 0.2582286527631083 0.1165037445078099 0.8108978305743619 C
atom_frac 0.7417647760250579 0.8835006060895549 0.1891031632917901 C
atom_frac 0.3161044347742249 0.1785199205836960 0.7096070000400159 C
atom_frac 0.6838897023141971 0.8214797784845583 0.2903955782473702 C
atom_frac 0.1977942586475266 0.2041082153730257 0.6190129884787723 C
atom_frac 0.8022105684500004 0.7958892332995475 0.3809871891501189 C
atom_frac 0.0258510234309099 0.1638515199871050 0.6348465994932794 C
atom_frac 0.9741501939204442 0.8361447623738767 0.3651562965050915 C
atom_frac 0.9797559419057722 0.1024904551026182 0.7392365014324653 C
atom_frac 0.0202374828000489 0.8975138624866470 0.2607629221443731 C
atom_frac 0.2543183051019611 0.2652849423679696 0.5111006915764946 C
atom_frac 0.7456836287143390 0.7347067544800936 0.4889069294217379 C
atom_frac 0.2376144488196844 0.3457150495466264 0.3209946585220678 C
atom_frac 0.7623929890178902 0.6542766192814324 0.6790080143480565 C
atom_frac 0.2391184826136695 0.2003041032162684 0.2840404552307376 C
atom_frac 0.7608908078832287 0.7996956590813934 0.7159551894339343 C
atom_frac 0.1359885495052069 0.4918573624377911 0.2376607210881048 C
atom_frac 0.8640135092523027 0.5081399682123759 0.7623356494475786 C
atom_frac 0.4430851932273257 0.3325997999646899 0.3611835863954980 C
atom_frac 0.5569175587499090 0.6674023815102286 0.6388197769951489 C
atom_frac 0.4575934121092970 0.4906435077256077 0.3648535087994632 C
atom_frac 0.5424074251811107 0.5093597030404098 0.6351442329032367 C
atom_frac 0.6186175949116760 0.2404115888638997 0.3033792125398236 C
atom_frac 0.3813901458788182 0.7595917766736873 0.6966213731663019 C
atom_frac 0.3328804235880938 0.8671606865266738 0.0551754832921887 N
atom_frac 0.6671213069301062 0.1328343672475754 0.9448244571179386 N
atom_frac 0.0029455675347593 0.2316521964342612 0.0440596351667892 N
atom_frac 0.9970392545292773 0.7683497377726450 0.9559437141747296 N
atom_frac 0.0929331631248829 0.0798167111476856 0.8256982306773252 N
atom_frac 0.9070575014056032 0.9201875544353795 0.1743005263849328 N
atom_frac 0.1263204188074455 0.3439761924157025 0.4263973901080789 N
atom_frac 0.8736664702122001 0.6560209429726522 0.5735996328930569 N
atom_frac 0.4415355488279007 0.2455007297599464 0.4772354776775529 N
atom_frac 0.5584820364831986 0.7544993040846745 0.5227676625434512 N
atom_frac 0.9383929080217543 0.3916163824159539 0.4298174140647645 O
atom_frac 0.0616225858396647 0.6083882521986010 0.5701826307607263 O
atom_frac 0.6000419689082366 0.1721803198110265 0.5339290747506595 O
atom_frac 0.3999602747768169 0.8278135053764968 0.4660679100712173 O
