#=======================================================
# FHI-aims file: ./geometry.in
# Created using the Atomic Simulation Environment (ASE)
# Fri Jan 14 15:06:22 2022
#=======================================================
lattice_vector 7.1548965420000004 -0.0473599260000000 0.2984508290000000 
lattice_vector 2.9619340510000001 8.0987920399999993 2.7782346290000000 
lattice_vector -0.0593431580000000 -0.3590976280000000 12.9264602899999996 
atom_frac 0.4999988540652184 0.5000087720660318 0.9999986811662256 Cd
atom_frac 0.6394844378511879 0.4465827571789092 0.2412016583607156 H
atom_frac 0.3605350444081523 0.5534082060322376 0.7587993893989164 H
atom_frac 0.5706753555466264 0.3291229580922491 0.4309447863299384 H
atom_frac 0.4293324778431469 0.6708691045955817 0.5690547468627545 H
atom_frac 0.0273164324809159 0.3124592785169469 0.3056801407117932 H
atom_frac 0.9726930630954914 0.6875388396395082 0.6943165054110595 H
atom_frac 0.1188994907011817 0.4333887251176308 0.1217053044064684 H
atom_frac 0.8811035439228619 0.5666215591498087 0.8782881024665558 H
atom_frac 0.4305520428336179 0.2865270689091660 0.7288052374390050 H
atom_frac 0.5694525016324762 0.7134661671810818 0.2711933458876744 H
atom_frac 0.1996751662772453 0.2985246025242534 0.7865328299207947 H
atom_frac 0.8003299640212306 0.7014774019050593 0.2134684969763470 H
atom_frac 0.2046074684153396 0.4056874558704777 0.6481751078803343 H
atom_frac 0.7953959028645062 0.5943120260055464 0.3518252545784222 H
atom_frac 0.4152416375797259 0.8761617158567534 0.7472500400518955 H
atom_frac 0.5847412020941362 0.1238400801236210 0.2527495254794871 H
atom_frac 0.3197724087390270 0.9821019921101382 0.8445764463668372 H
atom_frac 0.6802330306229936 0.0178924373749467 0.1554210861993894 H
atom_frac 0.5453673904355300 0.9906426041808273 0.7858583737866456 H
atom_frac 0.4546272825831466 0.0093407320133920 0.2141410179883962 H
atom_frac 0.9287691526257691 0.9997591382309279 0.6015492596973646 H
atom_frac 0.0712217056617988 0.0002401139633150 0.3984475729956146 H
atom_frac 0.0869730307598076 0.9006036516659180 0.7215938753181279 H
atom_frac 0.9130114741176030 0.0993907457388943 0.2784056946999840 H
atom_frac 0.1919228272487103 0.9252356297742497 0.5930741002941745 H
atom_frac 0.8080665979657981 0.0747637854603767 0.4069265984794015 H
atom_frac 0.8908926703673432 0.3528427237755523 0.6998576769847418 H
atom_frac 0.1091151676988176 0.6471627590155649 0.3001381981615623 H
atom_frac 0.9235533697204518 0.1556700895776046 0.7898694978017957 H
atom_frac 0.0764379775675081 0.8443414638710393 0.2101262269534133 H
atom_frac 0.7657118904268571 0.2280405415129464 0.6701767017364801 H
atom_frac 0.2342829825916724 0.7719760231013810 0.3298201854056801 H
atom_frac 0.5045687542545069 0.4164737040151181 0.2594213183818610 C
atom_frac 0.4954355426944730 0.5835268354921226 0.7405749273571446 C
atom_frac 0.4658122539094194 0.3501234688095849 0.3651829422198319 C
atom_frac 0.5341862124199325 0.6498709273548114 0.6348147585038078 C
atom_frac 0.2929242262785649 0.3080815476889783 0.3840334930149325 C
atom_frac 0.7070767278936215 0.6919204028070142 0.6159671682868294 C
atom_frac 0.1642902467202632 0.3400918745088292 0.2948852455622842 C
atom_frac 0.8357096496652261 0.6599158126593709 0.7051056975241894 C
atom_frac 0.2155667247908114 0.4076622607978848 0.1923784598882037 C
atom_frac 0.7844273732436948 0.5923494756835623 0.8076210300531629 C
atom_frac 0.2473572831798450 0.2371473974642697 0.4930765854666392 C
atom_frac 0.7526377281541062 0.7628520104860073 0.5069232122911842 C
atom_frac 0.2840128126406257 0.1397991770493476 0.6826100129408701 C
atom_frac 0.7159814390959127 0.8601953348862423 0.3173908546365071 C
atom_frac 0.0763601768275706 0.1481637855216746 0.6443965552323051 C
atom_frac 0.9236352296916907 0.8518380025541462 0.3556011746360924 C
atom_frac 0.2782250797422847 0.2933508777093152 0.7125946098738825 C
atom_frac 0.7217790618451970 0.7066400121962957 0.2874068078320563 C
atom_frac 0.3978838422369294 0.9872476141279591 0.7697610564098768 C
atom_frac 0.6021063656549117 0.0127565952986544 0.2302362730746665 C
atom_frac 0.0718654068246281 0.9822899779165726 0.6392933171180815 C
atom_frac 0.9281235340658823 0.0177105561669464 0.3607048315468688 C
atom_frac 0.9036342236212249 0.2273802558274910 0.7046255287074177 C
atom_frac 0.0963647624817271 0.7726263058276855 0.2953679981191614 C
atom_frac 0.0300718612697255 0.7462218421324421 0.9595198830217415 C
atom_frac 0.9699314576524217 0.2537882057496147 0.0404960026953418 C
atom_frac 0.7197993407152981 0.7627296290098047 0.0101894423697999 C
atom_frac 0.2802081451444138 0.2372701783267672 0.9898177176029251 C
atom_frac 0.3835737625797933 0.4434265182384181 0.1740839436090127 N
atom_frac 0.6164359467235913 0.5565778863088511 0.8259152145042565 N
atom_frac 0.3851231975012298 0.1501897314258329 0.5771299475883965 N
atom_frac 0.6148973733180156 0.8497953593494855 0.4228777524272332 N
atom_frac 0.0630855181224135 0.2525691175582594 0.5286780489697520 N
atom_frac 0.9368923935210423 0.7474276945332008 0.4713211542959925 N
atom_frac 0.5834615387469526 0.7159681119256618 0.0297806212701204 N
atom_frac 0.4165411821371663 0.2840363271827187 0.9702202379802076 N
atom_frac 0.1844169114837725 0.6839474858553843 0.9270027340381121 N
atom_frac 0.8155807552601645 0.3160659664627374 0.0730071352272006 N
atom_frac 0.8629003563900711 0.8230956865978881 0.9926656985695389 N
atom_frac 0.1371048122108789 0.1768896023991360 0.0073485033109932 N
atom_frac 0.5733856921445978 0.1023655702458015 0.5725238639764144 O
atom_frac 0.4266106276741155 0.8976238892988564 0.4274741737084398 O
atom_frac 0.8975986627375149 0.3324398763446652 0.4731894750187210 O
atom_frac 0.1024008722527868 0.6675518408901977 0.5268033615544425 O
