#=======================================================
# FHI-aims file: ./geometry.in
# Created using the Atomic Simulation Environment (ASE)
# Wed Feb  9 14:46:24 2022
#=======================================================
lattice_vector 6.6622152200000002 -0.1885574900000000 -0.0150938200000000 
lattice_vector -0.3946884000000000 7.5467152999999998 0.0050140800000000 
lattice_vector 0.0541170800000000 -0.0101917300000000 24.3473531299999983 
atom_frac 0.9250200500000001 -0.0821048000000000 0.7877920300000001 Co
    initial_moment         1.000000
atom_frac 0.5749810900000000 0.5821200600000001 0.2877739500000000 Co
    initial_moment         1.000000
atom_frac 0.0749783800000000 1.0821549500000001 0.2122133300000000 Co
    initial_moment        -3.000000
atom_frac 0.4250023300000000 0.4179376300000001 0.7122242600000002 Co
    initial_moment        -1.000000
atom_frac 0.8996939700000000 0.0902230600000000 0.6454390800000001 H
atom_frac 0.7182757300000000 0.8344842699999999 0.7063517000000001 H
atom_frac 0.7024426200000001 0.0529537800000000 0.7248597800000000 H
atom_frac 0.1803573100000000 -0.0901760500000000 0.6257717100000000 H
atom_frac 0.9495314100000001 0.7780225800000000 0.6275579100000001 H
atom_frac 0.3380461100000000 -0.0510339500000000 0.8080198500000001 H
atom_frac 0.5604129500000001 -0.0434054000000000 0.8886763000000000 H
atom_frac 0.0289122800000000 0.8317255500000001 0.9884767800000002 H
atom_frac 0.8261750000000000 0.8322664600000000 0.9014579200000000 H
atom_frac 0.3511034400000000 0.8772238500000000 0.0340593200000000 H
atom_frac 0.5541831400000001 0.8069867300000001 0.9947017700000000 H
atom_frac 0.6002671900000000 0.4099409200000000 0.1454152000000000 H
atom_frac 0.7816966499999999 0.6656216700000001 0.2063332900000000 H
atom_frac 0.7975461700000001 0.4471370600000000 0.2248348300000000 H
atom_frac 0.3196018900000000 0.5903621400000000 0.1257570100000000 H
atom_frac 0.5504301100000001 0.7221619200000002 0.1275453400000000 H
atom_frac 0.1619518200000000 0.5511009900000000 0.3080078700000001 H
atom_frac 0.9396237800000001 0.5433803800000000 0.3886713200000000 H
atom_frac 0.4711990999999999 0.6679290199999999 0.4884673400000001 H
atom_frac 0.6738919000000001 0.6675089800000000 0.4014416100000001 H
atom_frac 0.1490522400000000 0.6225278900000001 0.5340530300000002 H
atom_frac 0.9460151800000001 0.6929224800000001 0.4947064100000000 H
atom_frac 0.1002741700000000 0.9098511300000000 0.3545702600000000 H
atom_frac 0.2816985900000000 0.1655874500000000 0.2936563300000000 H
atom_frac 0.2975465500000001 0.9471182600000000 0.2751525700000000 H
atom_frac 0.8195972500000002 1.0902470600000000 0.3742274100000000 H
atom_frac 0.0504219100000000 0.2220526800000000 0.3724453800000000 H
atom_frac 0.6619555200000000 1.0512026100000000 0.1919823500000000 H
atom_frac 0.4396132300000001 1.0435016100000001 0.1113179700000000 H
atom_frac 0.9711845600000000 0.1680025700000000 0.0115146800000000 H
atom_frac 0.1738894300000000 0.1675602200000000 0.0985414800000000 H
atom_frac 0.6490010300000001 0.1226536300000000 0.9659334500000000 H
atom_frac 0.4459023400000000 0.1928993300000000 0.0052817600000000 H
atom_frac 0.3997120400000000 0.5901325599999999 0.8545812600000000 H
atom_frac 0.2182963000000000 0.3344351900000000 0.7936662400000001 H
atom_frac 0.2024357700000000 0.5529172900000001 0.7751631700000000 H
atom_frac 0.6803883200000002 0.4097343100000000 0.8742451200000000 H
atom_frac 0.4495702300000000 0.2779201400000000 0.8724603600000000 H
atom_frac 0.8380324700000000 0.4491068000000000 0.6919783500000000 H
atom_frac 0.0603428000000000 0.4567210500000001 0.6113152400000000 H
atom_frac 0.5287933200000001 0.3317031300000001 0.5115470300000000 H
atom_frac 0.3261141200000001 0.3322650900000000 0.5985717500000000 H
atom_frac 0.8509169500000000 0.3773035800000000 0.4659433700000000 H
atom_frac 0.0539527100000000 0.3069059599999999 0.5052900000000000 H
atom_frac 0.1112852900000000 0.1302296600000000 0.7111761200000001 C
atom_frac 0.9584056600000000 0.0108954900000000 0.6791065600000000 C
atom_frac 0.0593566700000000 -0.1429925700000000 0.6535495000000000 C
atom_frac 0.1479706900000000 0.7275822500000001 0.6930441300000000 C
atom_frac 0.2763408100000000 -0.0750163800000000 0.8491403200000001 C
atom_frac 0.3979897100000001 -0.0727527900000000 0.8949719100000000 C
atom_frac 0.3128451100000000 0.8965111300000000 0.9468171700000000 C
atom_frac 0.1039894900000000 0.8601407200000001 0.9490647400000000 C
atom_frac 0.9899727100000001 0.8609666500000001 0.9015039700000002 C
atom_frac 0.4427622700000000 0.9078770700000000 0.9969945000000001 C
atom_frac 0.3887006300000000 0.3698572300000000 0.2111543300000000 C
atom_frac 0.5415641300000000 0.4892320900000000 0.1790859400000000 C
atom_frac 0.4406100200000000 0.6431491100000000 0.1535349300000000 C
atom_frac 0.3520114200000000 0.7725331100000000 0.1930340200000000 C
atom_frac 0.2236817400000000 0.5749894800000001 0.3491291700000000 C
atom_frac 0.1020564800000000 0.5726729200000001 0.3949649099999999 C
atom_frac 0.1872328200000000 0.6033004600000001 0.4468104900000001 C
atom_frac 0.3960983100000000 0.6396093700000000 0.4490543700000000 C
atom_frac 0.5100890900000000 0.6388450900000000 0.4014899300000001 C
atom_frac 0.0573423400000000 0.5919496700000002 0.4969929200000000 C
atom_frac 0.8886961900000001 0.8698284299999999 0.2888302500000000 C
atom_frac 0.0415678800000000 0.9891714200000000 0.3209002700000000 C
atom_frac 0.9406077300000001 1.1430613199999999 0.3464523300000001 C
atom_frac 0.8520136100000001 0.2724841300000000 0.3069538500000000 C
atom_frac 0.7236772200000001 1.0750896999999999 0.1508593100000000 C
atom_frac 0.6020466700000000 1.0727853899999999 0.1050238500000000 C
atom_frac 0.6872207700000001 0.1034003800000000 0.0531767800000000 C
atom_frac 0.8960875000000001 0.1396904400000000 0.0509297100000000 C
atom_frac 0.0100837200000000 0.1389168800000000 0.0984944100000000 C
atom_frac 0.5573252500000000 0.0920100500000000 0.0029957700000000 C
atom_frac 0.6112824200000001 0.6302050799999999 0.7888431400000001 C
atom_frac 0.4584197300000000 0.5108353400000000 0.8209127000000001 C
atom_frac 0.5593842400000001 0.3569308100000000 0.8464684000000000 C
atom_frac 0.6480024700000001 0.2275487100000000 0.8069720400000000 C
atom_frac 0.7762985700000001 0.4250940400000000 0.6508631000000000 C
atom_frac 0.8979188700000001 0.4273500200000000 0.6050267400000000 C
atom_frac 0.8127477600000002 0.3965643400000001 0.5531872400000001 C
atom_frac 0.6038944700000000 0.3601565600000000 0.5509525199999999 C
atom_frac 0.4899069400000001 0.3609970400000000 0.5985168199999999 C
atom_frac 0.9426318000000000 0.4078845400000000 0.5030026600000000 C
atom_frac 0.7982002800000001 -0.0484533900000000 0.7179131399999999 N
atom_frac 0.0732377100000000 -0.1032086900000000 0.8519094399999999 N
atom_frac 0.7017797700000001 0.5485443699999999 0.2178920300000000 N
atom_frac 0.4267890400000000 0.6031371100000000 0.3518949400000000 N
atom_frac 0.2017820100000000 1.0485203200000000 0.2820957700000000 N
atom_frac 0.9267866300000001 1.1032145500000001 0.1480915000000000 N
atom_frac 0.2982079300000001 0.4515141899999999 0.7821067600000000 N
atom_frac 0.5731978599999999 0.3968650400000000 0.6481045100000000 N
atom_frac 0.1083942400000000 0.1115821400000000 0.7632711900000001 O
atom_frac 0.7287359900000001 0.7384061200000001 0.8149935800000000 O
atom_frac 0.1071424800000000 0.7351393100000000 0.7440522200000000 O
atom_frac 0.2540127200000000 0.6161520000000000 0.6712591000000000 O
atom_frac 0.3915991200000001 0.3884602200000000 0.2632494300000000 O
atom_frac 0.7712580900000001 0.7615939399999999 0.3149791400000000 O
atom_frac 0.3928262100000001 0.7649144800000000 0.2440422300000000 O
atom_frac 0.2459555900000001 0.8839792200000001 0.1712520500000000 O
atom_frac 0.8915998800000001 0.8884675199999998 0.2367348400000000 O
atom_frac 0.2712494400000001 0.2616532600000000 0.1850042400000000 O
atom_frac 0.8928262900000001 0.2649041100000000 0.2559454400000000 O
atom_frac 0.7459606700000000 0.3839130599999999 0.3287355500000000 O
atom_frac 0.6083787100000000 0.6116032799999999 0.7367478700000000 O
atom_frac 0.2287155500000000 0.2384692900000000 0.6850270800000001 O
atom_frac 0.6071641500000001 0.2351463900000000 0.7559646000000001 O
atom_frac 0.7540566399999999 0.1161049900000000 0.8287556700000001 O
