#=======================================================
# FHI-aims file: ./geometry.in
# Created using the Atomic Simulation Environment (ASE)
# Fri Jan 14 15:06:22 2022
#=======================================================
lattice_vector 0.2722771940000000 -8.1782070000000004 0.0448050000000000 
lattice_vector 8.0124177670000005 -0.0388002420000000 -0.0448050000000000 
lattice_vector 0.7500496320000000 0.6871849220000000 16.0211536949999989 
atom_frac 0.0049177521236743 0.5003300773194470 0.9997037201028148 Fe
atom_frac 0.4977366387960415 0.0052985981633711 0.5009842902945465 Fe
atom_frac 0.4975725455069410 0.9946186563553711 0.9986434470065505 Fe
atom_frac 0.9939173953566893 0.4969553374142708 0.5007737749559027 Fe
atom_frac 0.5208750738887460 0.5193610017117650 0.7504173788525748 Fe
atom_frac 0.4828819158427962 0.4824988159013161 0.2495970584474918 Fe
atom_frac 0.5346565289260427 0.7438515902544935 0.0878415507094275 H
atom_frac 0.7505645545835263 0.5363753299740213 0.4116996426948845 H
atom_frac 0.4758020197511641 0.2820439302270189 0.9471988695505047 H
atom_frac 0.2742904278339182 0.4666635238932173 0.5513953267501536 H
atom_frac 0.2291987320950142 0.5244823899332901 0.0969967715105611 H
atom_frac 0.5231724085795336 0.2351879688419417 0.4032504138072071 H
atom_frac 0.7309522769500916 0.5005726127484922 0.9498191034703396 H
atom_frac 0.5037349694288622 0.7238359119790942 0.5499885832492168 H
atom_frac 0.4797179134204725 0.6876066644671541 0.8713981977370082 H
atom_frac 0.6882019801213844 0.4770749970892397 0.6306437506231788 H
atom_frac 0.5205552759495758 0.3094602955920396 0.1301773847944503 H
atom_frac 0.3122102751584706 0.5220751844211690 0.3681060121843842 H
atom_frac 0.0339649724343474 0.1221231516118664 0.0098532184525055 C
atom_frac 0.1181547285770890 0.0349123884528098 0.4900695965110843 C
atom_frac 0.9587897439176274 0.8782179915229239 0.9893931663348924 C
atom_frac 0.8777074011311685 0.9578028741260595 0.5105842458911312 C
atom_frac 0.1201272022694226 0.9576480018621540 0.9991955276243162 C
atom_frac 0.9558816434159779 0.1218982367752091 0.4992944656639793 C
atom_frac 0.8721367782590973 0.0430447528129251 0.9999131671022853 C
atom_frac 0.0404280696840686 0.8702796124793368 0.5014315230545563 C
atom_frac 0.9718712078022520 0.5231774984515241 0.6897609553425212 C
atom_frac 0.5236071890988968 0.9726542696202504 0.8108548111923426 C
atom_frac 0.0298039186353591 0.4782920939632407 0.3104847882614123 C
atom_frac 0.4791337013753675 0.0283042405495380 0.1890507165506392 C
atom_frac 0.1391051052686763 0.5167395865497041 0.7293669441908294 C
atom_frac 0.5188369683895928 0.1414320882994957 0.7696817975222316 C
atom_frac 0.8639476369571497 0.4853156501602954 0.2702954778583191 C
atom_frac 0.4856600822078150 0.8605063291043892 0.2305442576988028 C
atom_frac 0.0649793437494424 0.5151941995050323 0.8136880854392244 C
atom_frac 0.5123274061295432 0.0641160141447942 0.6862887715766418 C
atom_frac 0.9382478020701868 0.4888408996567506 0.1863863477365726 C
atom_frac 0.4898455195797736 0.9375302753612901 0.3139685575235873 C
atom_frac 0.8994086338044980 0.5267885857373784 0.7720040013476890 C
atom_frac 0.5220107004832500 0.8965441970678044 0.7295673704798346 C
atom_frac 0.1023393457281898 0.4769851312475311 0.2286131245069640 C
atom_frac 0.4791351185466581 0.1037871879329870 0.2703102796723300 C
atom_frac 0.0886480698509118 0.2620823411875649 0.0244783072426102 O
atom_frac 0.2563409265436150 0.0877576327137534 0.4754530647750528 O
atom_frac 0.9076939142151871 0.7363382198164103 0.9758637053080506 O
atom_frac 0.7379310166028999 0.9080958807496988 0.5241048426717612 O
atom_frac 0.2642533867005668 0.9018644492100591 0.9980740755671106 O
atom_frac 0.8978884449077854 0.2684435890104524 0.4985313714157940 O
atom_frac 0.7273882383127486 0.0976479129682559 0.0017904131792861 O
atom_frac 0.0971791574768162 0.7231446919838050 0.5012907646145379 O
atom_frac 0.9025541560960236 0.5274747629384110 0.6184083091894693 O
atom_frac 0.5298129828401559 0.9043067903627318 0.8832085044825533 O
atom_frac 0.0939898159693868 0.4753616788104228 0.3832044485180007 O
atom_frac 0.4754546320050180 0.0912175235468808 0.1155812054242631 O
atom_frac 0.5775386125295937 0.7948581763719956 0.0364690966818628 O
atom_frac 0.8021870240432207 0.5849118540813055 0.4612823225281346 O
atom_frac 0.4072459565706836 0.1851439455117970 0.9537976484279937 O
atom_frac 0.1765686578254986 0.4001110448778534 0.5476538071905637 O
atom_frac 0.1229087495416650 0.5068836844233076 0.8863558934204079 O
atom_frac 0.5023524945804567 0.1214865470571453 0.6129593091842054 O
atom_frac 0.8837549931977334 0.5008112419107604 0.1128122380966659 O
atom_frac 0.5017550604929610 0.8848063610268044 0.3881014271438444 O
atom_frac 0.1892800507512433 0.5747360505935787 0.0421012349618408 O
atom_frac 0.5665825544423129 0.1970740743567419 0.4595064945196370 O
atom_frac 0.8248840585972135 0.4205620143413214 0.9525827316399856 O
atom_frac 0.4230177339675337 0.8177817100924261 0.5465147870519971 O
atom_frac 0.7584319103710158 0.5380574896188081 0.7984603585739620 O
atom_frac 0.5289798436470150 0.7518308550645828 0.7032573966931537 O
atom_frac 0.2444419214571951 0.4698706869829438 0.2008451074808448 O
atom_frac 0.4736893543126258 0.2486368525397609 0.2981974091010073 O
atom_frac 0.2784051297369671 0.5154978479348672 0.7009703017045368 O
atom_frac 0.5218768847916380 0.2839027975380830 0.7984498379172820 O
atom_frac 0.7243251290120369 0.4887710758692735 0.3001597820105673 O
atom_frac 0.4886045489883771 0.7184632087155693 0.2001290842275409 O
atom_frac 0.4610013224558073 0.5738861004021205 0.8522031597972202 O
atom_frac 0.5760059357921463 0.4580052993248104 0.6490196136579202 O
atom_frac 0.5465896870026724 0.4208996491833972 0.1501264205839377 O
atom_frac 0.4220345467044809 0.5488269683330600 0.3488151378383649 O
