#=======================================================
# FHI-aims file: ./geometry.in
# Created using the Atomic Simulation Environment (ASE)
# Wed Feb  9 14:46:29 2022
#=======================================================
lattice_vector 10.3551728900000004 -1.2970300100000001 0.7610329500000000 
lattice_vector -6.0753703799999998 9.1003798099999997 -0.0598846100000000 
lattice_vector 0.1841026300000000 0.8848649000000000 22.2972317699999998 
atom_frac 0.1673220700000000 0.4901245799999999 0.7244761100000001 Cu
    initial_moment         1.000000
atom_frac 0.8327411200000001 0.5099531100000000 0.2755017400000000 Cu
    initial_moment         1.000000
atom_frac 0.5000347500000001 0.5000622600000001 0.4999865199999999 Cu
    initial_moment        -1.000000
atom_frac 1.0000249200000002 1.0000134500000002 -0.0000064000000000 Cu
    initial_moment         1.000000
atom_frac 0.6541254900000000 0.3421462700000000 0.5200229300000000 H
atom_frac 0.1938262200000000 0.2072356500000000 0.5983004800000000 H
atom_frac 0.2163675400000000 -0.0213772000000000 0.6400177500000001 H
atom_frac 0.6576839200000000 0.1444340800000000 0.5828168799999999 H
atom_frac 0.4663217800000000 -0.0234273100000000 0.6269252500000000 H
atom_frac 0.5258087400000000 0.8953606200000001 0.5339846499999999 H
atom_frac 0.3296162900000000 0.8518907100000002 0.5355444800000000 H
atom_frac 0.4291745700000001 0.6898123000000000 0.8346065599999999 H
atom_frac 0.0780566300000000 0.2042575800000000 0.7936615399999999 H
atom_frac 0.2748697000000001 0.2287829900000000 0.8775242499999999 H
atom_frac 0.4574240600000001 0.5605319000000001 0.9496476499999998 H
atom_frac 0.6317648499999999 0.6666785800000000 0.8914284099999999 H
atom_frac 0.4309441000000001 0.3189725200000000 0.9493699900000000 H
atom_frac 0.6347625900000001 0.4969361900000001 0.9642687399999998 H
atom_frac 0.5694884300000002 0.3811812600000001 0.8372916500000001 H
atom_frac 0.7668901600000000 0.5381681500000000 0.8642779699999998 H
atom_frac 0.7364255399999999 0.3339279300000000 0.9314872500000000 H
atom_frac 0.5370279800000000 0.1743115800000000 0.9065415000000000 H
atom_frac -0.0127125399999999 0.5335665800000001 0.8333214700000000 H
atom_frac 0.7938801000000001 0.1549980900000000 0.7202179800000000 H
atom_frac 0.5466588700000000 0.0440451600000000 0.8207714099999999 H
atom_frac 0.4015978800000001 0.4073835600000000 0.7325148000000000 H
atom_frac 0.4450640400000000 0.7338650900000000 0.6099529000000000 H
atom_frac 0.7197419700000000 0.7440939400000000 0.5800706900000000 H
atom_frac 0.7345730100000000 0.5099967000000000 0.6205110700000001 H
atom_frac 0.6393487900000000 0.4293889500000000 0.6963769200000000 H
atom_frac 0.9471488300000003 0.6561906100000002 0.6953804899999999 H
atom_frac 0.9360400099999998 0.7855938799999999 0.6505438800000000 H
atom_frac 0.7484257300000000 0.6264409700000000 0.7786598800000001 H
atom_frac 0.7406206899999999 0.7570674700000000 0.7341111800000000 H
atom_frac 0.0600735800000000 0.8510343100000000 0.7819703800000000 H
atom_frac 0.0527015000000001 0.9832948600000001 0.7363931100000000 H
atom_frac 0.0767348300000000 0.8978858600000000 0.8818259899999998 H
atom_frac 0.7536226499999999 -0.0606826300000000 0.7993350799999999 H
atom_frac 0.7560848100000001 0.0034630400000000 0.9191681400000000 H
atom_frac 0.0199407800000000 0.3825093300000000 0.4104760600000000 H
atom_frac 0.1953597100000000 0.5099415899999999 0.9271396699999997 H
atom_frac 0.3457686500000000 0.6579552100000000 0.4798936700000000 H
atom_frac 0.8061729500000002 0.7928627200000001 0.4017399300000000 H
atom_frac 0.7836092500000000 1.0213832599999999 0.3599261599999999 H
atom_frac 0.3422042600000001 0.8555315100000003 0.4170983000000000 H
atom_frac 0.5335861899999998 1.0234452099999998 0.3730157800000000 H
atom_frac 0.4739429600000000 0.1045373300000000 0.4659544100000000 H
atom_frac 0.6701766700000000 0.1480862700000000 0.4644128400000000 H
atom_frac 0.5708222400000000 0.3102288800000000 0.1653930600000000 H
atom_frac 0.9220042700000002 0.7957853000000001 0.2063215400000000 H
atom_frac 0.7251667700000000 0.7712640100000000 0.1224534200000000 H
atom_frac 0.5425926000000000 0.4395182700000000 0.0503457700000000 H
atom_frac 0.3682593300000001 0.3333516500000001 0.1085678100000000 H
atom_frac 0.5690269100000002 0.6810468100000001 0.0506241100000000 H
atom_frac 0.3652095700000000 0.5030689400000001 0.0357343000000000 H
atom_frac 0.4305201500000001 0.6188553700000002 0.1627073100000000 H
atom_frac 0.2331079600000001 0.4618448600000001 0.1357282700000000 H
atom_frac 0.2635181700000000 0.6660377900000000 0.0685182500000000 H
atom_frac 0.4629439400000000 0.8256860700000000 0.0934401400000000 H
atom_frac 1.0127262299999999 0.4664657800000001 0.1666808600000000 H
atom_frac 0.2061270300000001 0.8450169600000003 0.2797867000000000 H
atom_frac 0.4533683499999999 0.9559882900000000 0.1792238500000000 H
atom_frac 0.5985327900000000 0.5927967000000000 0.2674721000000000 H
atom_frac 0.5551573800000001 0.2663431600000001 0.3900112600000000 H
atom_frac 0.2803324300000000 0.2559198900000000 0.4198751700000000 H
atom_frac 0.2654974100000000 0.4900611300000000 0.3794631100000000 H
atom_frac 0.3606900800000001 0.5706662300000002 0.3035975000000000 H
atom_frac 0.0528868100000000 0.3438122600000000 0.3046010800000000 H
atom_frac 0.0640486500000000 0.2144478000000000 0.3494367500000000 H
atom_frac 0.2516267500000000 0.3735929600000000 0.2213164100000000 H
atom_frac 0.2594568800000000 0.2429848400000000 0.2658647199999999 H
atom_frac 0.9399806100000001 0.1490017900000000 0.2180205000000000 H
atom_frac 0.9473593000000000 0.0167496800000000 0.2636019800000000 H
atom_frac 0.9232815899999998 0.1021060400000000 0.1181609100000000 H
atom_frac 0.2464149499999999 1.0607150200000000 0.2006574700000000 H
atom_frac 0.2439874800000001 0.9965938000000001 0.0808210500000000 H
atom_frac 0.9802134200000000 0.6175306100000000 0.5894841800000000 H
atom_frac 0.8046877300000003 0.4900905400000001 0.0728404800000000 H
atom_frac 0.5326464099999999 0.2764363100000000 0.5476070600000000 C
atom_frac 0.2930791800000001 0.2011190800000001 0.5887563999999998 C
atom_frac 0.3032660900000000 0.0891358700000000 0.6097182299999999 C
atom_frac 0.5180773900000000 0.0532942600000000 0.5838542100000000 C
atom_frac 0.4691999900000000 0.9516649099999999 0.5306467400000000 C
atom_frac 0.3660974200000000 0.5625946500000000 0.8311435799999999 C
atom_frac 0.1846700000000001 0.3101841300000001 0.8128922099999999 C
atom_frac 0.2816568400000000 0.3209648300000000 0.8539704400000000 C
atom_frac 0.5141215700000000 0.5456193900000000 0.9101610100000000 C
atom_frac 0.5498213400000000 0.4373249800000000 0.9286057199999999 C
atom_frac 0.6387449400000000 0.4189102300000000 0.8775091899999999 C
atom_frac 0.6597330900000000 0.2975276400000000 0.8935955199999999 C
atom_frac 0.9036923999999997 0.4144534600000000 0.8154137200000000 C
atom_frac 0.7957162800000001 0.2154414200000000 0.7586339399999998 C
atom_frac 0.6733865100000000 0.1615769100000000 0.8061713099999999 C
atom_frac 0.4486892299999999 0.4983686600000000 0.6951889900000000 C
atom_frac 0.4788572500000000 0.6699387400000000 0.6314576300000000 C
atom_frac 0.6115695700000000 0.6746962600000002 0.6157110400000000 C
atom_frac 0.7056868800000001 0.5374744900000000 0.6639749700000001 C
atom_frac 0.8661363800000000 0.6848837600000001 0.6868966299999999 C
atom_frac 0.8228416900000001 0.7306298400000001 0.7437703700000000 C
atom_frac 0.9774731999999999 0.8749867000000001 0.7695318700000000 C
atom_frac -0.0058818500000001 0.9253364900000000 0.8768977100000001 C
atom_frac 0.8208630900000000 -0.0591696400000000 0.8344839800000001 C
atom_frac 0.8242965300000000 -0.0258236500000000 0.8935944400000000 C
atom_frac 0.1420671300000000 0.3445608800000001 0.5009660800000000 C
atom_frac 0.0515087300000000 0.4094301500000000 0.5046575599999999 C
atom_frac 0.0114421100000000 0.4346684000000000 0.4501449699999999 C
atom_frac 0.0373832700000001 0.4740343200000001 0.5557196300000000 C
atom_frac 0.0637844600000000 0.4404372100000001 0.6170588500000000 C
atom_frac 0.0309331900000000 0.2552559400000001 0.0020136700000000 C
atom_frac 0.0087764400000000 0.3774152800000000 0.0043358400000000 C
atom_frac 0.8960810900000001 0.3689663500000001 0.0467632800000000 C
atom_frac 0.1092824600000001 0.5072643400000001 0.9593578800000000 C
atom_frac 0.7942325800000000 0.2480074200000001 0.1025768600000000 C
atom_frac 0.4672959900000001 0.7236187900000001 0.4523533300000000 C
atom_frac 0.7069233700000001 0.7989982400000000 0.4112468300000000 C
atom_frac 0.6966933300000000 0.9109234200000002 0.3902524200000000 C
atom_frac 0.4818054700000001 0.9466913100000002 0.4160791500000000 C
atom_frac 0.5306022700000000 0.0482826200000000 0.4692963100000000 C
atom_frac 0.6339298100000001 0.4374544100000001 0.1688424500000000 C
atom_frac 0.8153955300000000 0.6898718500000000 0.1870793400000000 C
atom_frac 0.7183872200000001 0.6790910200000001 0.1460109900000000 C
atom_frac 0.4858899700000001 0.4544178900000000 0.0898346000000000 C
atom_frac 0.4501635100000000 0.5626913700000000 0.0713933400000000 C
atom_frac 0.3612494800000001 0.5811078600000001 0.1224930000000000 C
atom_frac 0.3402463199999999 0.7024750400000001 0.1064010600000000 C
atom_frac 0.0963248700000000 0.5855800200000000 0.1845877900000000 C
atom_frac 0.2043218600000000 0.7846077100000000 0.2413636700000000 C
atom_frac 0.3266362400000001 0.8384597200000001 0.1938222500000000 C
atom_frac 0.5514406200000000 0.5017964499999999 0.3047911700000000 C
atom_frac 0.5212938200000000 0.3302163000000000 0.3685138400000000 C
atom_frac 0.3885321600000001 0.3253883100000001 0.3842483700000000 C
atom_frac 0.2943738300000000 0.4625818800000000 0.3359975700000000 C
atom_frac 0.1339312800000000 0.3151557500000000 0.3130825400000000 C
atom_frac 0.1772243200000000 0.2694104600000000 0.2562083900000000 C
atom_frac 0.0225787900000000 0.1250450700000000 0.2304565400000000 C
atom_frac 1.0059084599999999 0.0746692900000000 0.1230918500000000 C
atom_frac 0.1791836000000000 1.0592031399999999 0.1655048100000000 C
atom_frac 0.1757612500000003 1.0258665600000005 0.1063935200000000 C
atom_frac 0.8579633000000000 0.6553504400000001 0.4989994300000000 C
atom_frac 0.9484469100000000 0.5904375400000000 0.4953152499999999 C
atom_frac 0.9886317399999999 0.5652874500000001 0.5498279100000000 C
atom_frac 0.9626279100000000 0.5258769100000000 0.4442587900000000 C
atom_frac 0.9363038299999999 0.5595077600000000 0.3829033199999999 C
atom_frac 0.9691027000000000 0.7447660900000000 0.9979688299999999 C
atom_frac 0.9912661100000001 0.6226137200000000 0.9956428300000000 C
atom_frac 0.1039675100000000 0.6310675100000001 0.9532168600000001 C
atom_frac 0.8907603400000002 0.4927644900000000 0.0406208300000000 C
atom_frac 0.2058374800000001 0.7520463900000001 0.8974088899999999 C
atom_frac 0.4558870900000000 0.1393498100000000 0.5833686200000000 N
atom_frac 0.4375792000000000 0.3170645900000000 0.5499727799999999 N
atom_frac 0.3790963400000000 0.5605288200000000 0.6810128300000000 N
atom_frac 0.5882141300000000 0.5634895599999999 0.6565573600000000 N
atom_frac 0.9299016100000002 0.9112555200000002 0.8247894900000000 N
atom_frac 0.9322680200000000 -0.0364144200000000 0.9192280899999999 N
atom_frac 0.2381838700000000 0.4610639300000001 0.7990822300000001 N
atom_frac 0.3953896200000000 0.4803906300000000 0.8648429900000001 N
atom_frac 0.7446984600000001 0.2889591100000000 0.8411632400000000 N
atom_frac 0.9381945500000000 0.3727078800000000 0.7652309500000001 N
atom_frac 0.5440433400000001 0.8606752000000001 0.4165697500000000 N
atom_frac 0.5624110100000000 0.6830432600000000 0.4500309399999999 N
atom_frac 0.6210733100000001 0.4396800000000001 0.3189722600000000 N
atom_frac 0.4118719700000000 0.4365999300000001 0.3434104099999999 N
atom_frac 0.0701248000000000 0.0887527300000000 0.1751999900000000 N
atom_frac 0.0677784700000000 1.0364413400000001 0.0807603500000000 N
atom_frac 0.7618675900000000 0.5389866900000000 0.2008925300000000 N
atom_frac 0.6046304500000000 0.5196590800000002 0.1351480900000000 N
atom_frac 0.2553123800000000 0.7110712799999999 0.1588338300000000 N
atom_frac 0.0618388600000001 0.6273364600000001 0.2347694700000000 N
atom_frac 0.0937203800000000 0.2311254100000000 0.4707235100000001 O
atom_frac 0.2806283900000000 0.4368829300000001 0.5261296500000000 O
atom_frac 0.0193973300000000 0.3067235700000000 0.6323948100000000 O
atom_frac 0.1285724500000001 0.5579467500000002 0.6510606799999999 O
atom_frac 0.8993036200000002 0.1050398900000000 0.0158837200000000 O
atom_frac 0.1749526000000000 0.3033286800000000 -0.0154875100000000 O
atom_frac 0.8834492900000001 0.2480994900000000 0.1383707400000000 O
atom_frac 0.6374353400000000 0.1692738000000000 0.1111550000000000 O
atom_frac 0.9062426600000000 0.7686976400000000 0.5292889100000000 O
atom_frac 0.7194767200000001 0.5632330800000002 0.4737700400000000 O
atom_frac 0.9809335700000000 0.6933203000000000 0.3675565000000000 O
atom_frac 0.8713668600000000 0.4419640700000000 0.3489167400000000 O
atom_frac 0.1007378700000000 0.8949905100000000 0.9841093099999999 O
atom_frac 0.8250828400000001 0.6966904300000000 1.0154604899999999 O
atom_frac 0.1166367600000001 0.7519500000000001 0.8616054700000000 O
atom_frac 0.3626337900000000 0.8307829300000000 0.8888404300000000 O
