#=======================================================
# FHI-aims file: ./geometry.in
# Created using the Atomic Simulation Environment (ASE)
# Wed Feb  9 14:46:28 2022
#=======================================================
lattice_vector -15.1193238900000004 -0.1829677900000000 -0.8739419700000000 
lattice_vector -0.2476589600000000 -14.9005198700000001 0.6234653800000000 
lattice_vector 0.6373028700000000 -0.0608748100000000 19.4965522799999995 
atom_frac 0.5469079300000000 0.5891693399999999 0.4374361600000000 Zn
atom_frac 0.4153263500000000 0.5818330599999999 0.5623091700000000 Zn
atom_frac 0.5711795800000001 0.4450446000000000 0.5580984900000000 Zn
atom_frac 0.3999780200000001 0.4477571600000000 0.4435776600000000 Zn
atom_frac 0.1135023000000000 0.5219856899999999 0.4127204799999999 H
atom_frac 0.6298765700000000 0.3939970300000001 0.7187693199999999 H
atom_frac 0.3635289400000000 0.2376276700000000 0.4607105000000000 H
atom_frac 0.6686605799999999 0.4375255400000000 0.9820994599999999 H
atom_frac 0.3826709200000001 0.3602466900000000 0.0572370000000000 H
atom_frac 0.6951298800000001 0.3543460100000000 0.8692930100000001 H
atom_frac 0.3622830800000000 0.3992573300000000 0.2842689400000000 H
atom_frac 0.6328146900000000 0.5423371300000001 0.0737762300000000 H
atom_frac 0.7986017900000000 0.5509100500000002 0.3800781799999999 H
atom_frac 0.5984597900000000 0.8667432800000000 0.5073786300000001 H
atom_frac 0.4114079900000000 0.5860248000000000 0.7722539799999999 H
atom_frac 0.4097011600000000 0.4714355700000000 0.9978895300000000 H
atom_frac 0.6358709500000000 0.6104948400000000 0.2035225300000000 H
atom_frac 0.4292609800000001 0.5829451099999999 0.9531073900000000 H
atom_frac 0.0623774000000000 0.4517804800000000 0.6920413299999999 H
atom_frac 0.7822997100000001 0.4611046700000000 0.5969922300000000 H
atom_frac 0.2493849800000000 0.5045283800000000 0.5112562899999999 C
atom_frac 0.4765331100000000 0.4744071800000000 0.0245073500000000 C
atom_frac 0.5451117200000000 0.4710893900000000 0.9840309200000000 C
atom_frac 0.7209096300000001 0.5150051299999999 0.4933542600000000 C
atom_frac 0.5197611400000000 0.4915873900000001 0.7633051700000000 C
atom_frac 0.1532933900000000 0.4976199500000000 0.5200949000000000 C
atom_frac 0.8166068800000000 0.5108855800000000 0.4876566600000000 C
atom_frac 0.9367239900000000 0.5296571100000000 0.4148550500000000 C
atom_frac 0.8474492500000000 0.5326589400000001 0.4234895799999999 C
atom_frac 0.8769182500000000 0.4862304600000000 0.5453217600000000 C
atom_frac 0.9702826200000001 0.4898955199999999 0.5388461300000000 C
atom_frac 0.4817460700000001 0.4769592800000000 0.0990582800000000 C
atom_frac 0.0003068600000000 0.5092579700000001 0.4726032300000000 C
atom_frac 0.0916748500000000 0.5094209400000000 0.4641074700000000 C
atom_frac 0.1255535800000000 0.4824734900000000 0.5868389999999999 C
atom_frac 0.4712592300000000 0.7468643799999999 0.4951643400000000 C
atom_frac 0.0350246400000000 0.4758709100000000 0.5962967700000000 C
atom_frac 0.4592446800000000 0.8468991600000002 0.4886550599999999 C
atom_frac 0.5071707400000000 0.1827217000000000 0.4973254700000000 C
atom_frac 0.5999577600000000 0.0457791900000000 0.5126044400000001 C
atom_frac 0.5912484300000002 0.1388837400000000 0.5139665699999999 C
atom_frac 0.4322509900000001 0.1319007100000000 0.4791087099999999 C
atom_frac 0.4186380600000000 0.4297263600000000 0.1339725800000000 C
atom_frac 0.4389335100000000 0.0356690900000000 0.4818125800000000 C
atom_frac 0.5238605900000000 0.9931753100000001 0.4972566300000000 C
atom_frac 0.5324681300000000 0.8989616700000002 0.4978952500000000 C
atom_frac 0.3735314600000000 0.8876947400000000 0.4753256699999999 C
atom_frac 0.4969683900000000 0.2809771000000000 0.5006336100000000 C
atom_frac 0.3635029400000000 0.9816723200000002 0.4700966200000000 C
atom_frac 0.5127017500000001 0.5001562500000000 0.6879123199999999 C
atom_frac 0.4650515900000000 0.5060290400000000 0.3151632899999999 C
atom_frac 0.4725057300000000 0.4943427500000000 0.2423111300000000 C
atom_frac 0.5381780400000001 0.5388147200000000 0.2075646400000000 C
atom_frac 0.4139437900000000 0.4368794300000001 0.2047579700000000 C
atom_frac 0.5431801799999999 0.5285987800000000 0.1372711700000000 C
atom_frac 0.1840705300000000 0.4698085000000000 0.6474622100000000 C
atom_frac -0.0341489500000000 0.5483660800000000 0.3487042400000000 C
atom_frac 0.2980226300000001 0.8335752700000001 0.4648612900000000 C
atom_frac 0.6836129800000000 1.0011083500000002 0.5281078900000000 C
atom_frac 0.2757048000000001 1.0176418899999997 0.4544140600000000 C
atom_frac 0.6697594700000000 0.1869093800000000 0.5309050199999999 C
atom_frac 0.5934538700000002 0.4314290000000000 0.8708478200000001 C
atom_frac 0.5861419200000001 0.4356091600000001 0.7989668100000000 C
atom_frac 0.4620688400000000 0.5415422300000000 0.8001627200000000 C
atom_frac 0.4684698600000000 0.5353655100000000 0.8714939800000000 C
atom_frac 0.5345166600000000 0.4780241900000000 0.9086752200000000 C
atom_frac 0.2221640900000000 0.4565258900000000 0.7019628300000000 N
atom_frac -0.0100973600000000 0.5632229700000001 0.2943297700000000 N
atom_frac 0.2371945000000000 0.7880287100000001 0.4555314400000000 N
atom_frac 0.7504475900000002 0.9607015200000001 0.5409572900000000 N
atom_frac 0.2013067400000000 0.0392136800000000 0.4418257300000000 N
atom_frac 0.7378763100000000 0.2194059600000000 0.5445651400000000 N
atom_frac 0.4830285400000001 0.5148178200000000 0.5005712000000000 O
atom_frac 0.4597701900000000 0.5585092100000000 0.6573733100000000 O
atom_frac 0.4165360800000000 0.4497979000000001 0.3471261300000000 O
atom_frac 0.5632928500000001 0.4467012500000000 0.6568476700000000 O
atom_frac 0.5038383300000000 0.5696708600000000 0.3448069200000000 O
atom_frac 0.5984652000000000 0.5910873500000001 0.2399287100000000 O
atom_frac 0.4118804500000000 0.5873087500000002 0.9032686200000000 O
atom_frac 1.0093080100000000 0.4583304400000001 0.6589095400000000 O
atom_frac 0.8491261800000000 0.4614648499999999 0.6051649099999999 O
atom_frac 0.6461463800000000 0.3850535200000000 0.7695893200000000 O
atom_frac 0.3542133300000000 0.1700009900000000 0.4606219500000000 O
atom_frac 0.5304569800000000 0.7131011400000000 0.4617348100000000 O
atom_frac 0.6297953100000000 0.4630107400000000 0.0148997100000000 O
atom_frac 0.3602066400000000 0.3749650400000001 0.1007834800000000 O
atom_frac 0.6607923400000000 0.3795718700000000 0.9046352499999999 O
atom_frac 0.3529052800000000 0.3887268000000000 0.2340735400000000 O
atom_frac 0.6068346700000001 0.5778241199999999 0.1092250400000000 O
atom_frac 0.4228026100000001 0.3179528400000001 0.4746014000000001 O
atom_frac 0.2949040000000000 0.5427795200000000 0.5584101699999999 O
atom_frac 0.6926933200000001 0.4812314500000000 0.5494670500000000 O
atom_frac 0.2773447900000001 0.4716875000000000 0.4581237000000000 O
atom_frac 0.6707976000000001 0.5511693800000000 0.4441668799999999 O
atom_frac 0.4215606900000001 0.7075160800000001 0.5346371500000000 O
atom_frac 0.5603574500000000 0.3222793000000000 0.5292597000000000 O
