#=======================================================
# FHI-aims file: ./geometry.in
# Created using the Atomic Simulation Environment (ASE)
# Wed Feb  9 14:46:20 2022
#=======================================================
lattice_vector 4.2370286200000002 0.6824041300000000 -0.9215126400000000 
lattice_vector -1.7290995100000000 7.3651072199999996 -5.7471155300000003 
lattice_vector 0.9732494400000000 -2.1832559900000001 18.1430198400000009 
atom_frac 0.0000010900000001 1.0000143200000002 1.0000008400000000 Mn
    initial_moment         4.000000
atom_frac 0.8489717200000001 0.4775942399999999 0.4886425500000000 H
atom_frac 0.5086658100000001 0.2848290600000000 0.9015017599999999 H
atom_frac 0.2437272900000000 0.6096234099999999 0.1678865599999999 H
atom_frac 0.4822321200000000 0.9889370100000000 0.8718187899999998 H
atom_frac 0.3239707100000001 0.8139425600000001 0.6889615000000000 H
atom_frac 0.1544253400000000 0.4995904700000001 0.6259530100000001 H
atom_frac 0.2816903500000000 0.6845055700000001 0.8113570200000000 H
atom_frac 0.1509999900000001 0.5223751700000001 0.5113519300000000 H
atom_frac 0.4913510500000001 0.7151948000000000 0.0985101900000000 H
atom_frac 0.7563062500000001 0.3903961699999999 0.8321203699999999 H
atom_frac 0.5177626600000000 0.0110660300000000 0.1281769100000000 H
atom_frac 0.6760062700000000 0.1860322300000000 0.3110307200000000 H
atom_frac 0.8455424300000000 0.5003804100000000 0.3740428199999999 H
atom_frac 0.7183102300000000 0.3155016999999999 0.1886455500000000 H
atom_frac 0.4868294200000000 0.2791752300000000 1.0443614299999999 C
atom_frac 0.8655630600000001 0.4374451300000000 1.0384764399999999 C
atom_frac 0.7149870600000000 0.3881494800000000 0.9474494700000000 C
atom_frac 0.1455455000000000 0.5545521100000000 0.0918488100000000 C
atom_frac 0.6295570000000001 0.8802266800000000 0.8150685000000000 C
atom_frac 0.5381394300000001 0.7767687400000001 0.7111871999999999 C
atom_frac 0.7187596100000001 0.6315453300000001 0.6373751400000000 C
atom_frac 0.6406961600000001 0.5242505600000001 0.5288143500000000 C
atom_frac 0.9907678000000001 0.6028362400000001 0.6768837200000000 C
atom_frac 1.0719870000000000 0.7117428500000000 0.7818609599999999 C
atom_frac 0.5131908000000001 0.7208327300000001 -0.0443637600000000 C
atom_frac 0.1344604600000001 0.5625743200000001 -0.0384694100000000 C
atom_frac 0.2850309000000000 0.6118737800000001 0.0525592100000000 C
atom_frac 0.8544719900000001 0.4454692800000000 0.9081592900000000 C
atom_frac 0.3704435400000000 0.1197758400000000 0.1849291800000000 C
atom_frac 0.4618430200000000 0.2232161400000000 0.2888087100000000 C
atom_frac 0.2812197900000000 0.3684331100000001 0.3626214700000001 C
atom_frac 0.3592781400000000 0.4757195800000000 0.4711812700000000 C
atom_frac 0.0092146000000000 0.3971480800000001 0.3231145800000000 C
atom_frac -0.0719855100000000 0.2882604800000000 0.2181393600000000 C
atom_frac 0.2948675400000000 0.1654323099999999 1.0221148599999998 N
atom_frac 0.7432051200000001 0.3773685600000001 1.0776115000000002 N
atom_frac 0.8926613000000000 0.8500022400000002 0.8517367800000000 N
atom_frac 0.7051316700000000 0.8345859400000000 -0.0221170400000000 N
atom_frac 0.2568307200000001 0.6226304900000003 -0.0776112200000000 N
atom_frac 0.1073488900000000 0.1500137700000000 0.1482638500000000 N
