#=======================================================
# FHI-aims file: ./geometry.in
# Created using the Atomic Simulation Environment (ASE)
# Fri Jan 14 15:06:22 2022
#=======================================================
lattice_vector 9.7310823450000008 -0.1636204820000000 -1.8671534340000000 
lattice_vector -3.6743656919999999 11.7287880879999999 -4.2853536840000004 
lattice_vector 0.7346703520000000 0.6545628600000000 14.5168502349999997 
atom_frac 0.5276398170716092 0.5204905113532590 0.1539955562319761 Co
atom_frac 0.4723639201984682 0.4796816966913084 0.8458674879867798 Co
atom_frac 0.8140514353180635 0.6734635667420862 0.2501120043885833 H
atom_frac 0.9197632946434240 0.8778529663845093 0.3439099774915347 H
atom_frac 0.4937787122777237 0.9127637190894193 0.2991768816361855 H
atom_frac 0.4057709010218248 0.7061132051786316 0.2034491855039419 H
atom_frac 0.0612134696004603 0.3008588852954758 0.4461079068531574 H
atom_frac 0.0688134939466779 0.4860273565330503 0.5675504218199805 H
atom_frac 0.7543041523501869 0.3153322401382894 0.6896428359620470 H
atom_frac 0.7396942252953593 0.1311896424400132 0.5623655612785967 H
atom_frac 0.1849386833086299 0.5562279969736538 0.7277978640381090 H
atom_frac 0.3484766053622650 0.7509145215828497 0.7929270754652079 H
atom_frac 0.9935673923859626 0.8861227408593134 0.8177856717154126 H
atom_frac 0.8257787864160518 0.6900883606110709 0.7460157141458051 H
atom_frac 0.5221295067566912 0.1277776504197874 0.9490060242736077 H
atom_frac 0.6349789542483109 0.3255365995307927 0.0589489170974105 H
atom_frac 0.2463307865339530 0.3693622012838134 0.1102625582042265 H
atom_frac 0.1185757638535136 0.1717805327819875 0.0061169938538654 H
atom_frac 0.6900645631628990 0.4357642883745214 0.4230635721876793 H
atom_frac 0.3271172811043499 0.5645813390547404 0.4071392058396197 H
atom_frac 0.9309533433981940 0.5362179547899331 0.1619191685492821 H
atom_frac 0.1807660299622641 0.5413346164838374 0.1528470825765424 H
atom_frac 0.1861101653248411 0.3264555455583036 0.7496201678014385 H
atom_frac 0.0809231692462831 0.1221021166604643 0.6557060639679121 H
atom_frac 0.5072439182322199 0.0879015182369258 0.7002187908711121 H
atom_frac 0.5946659293487213 0.2942265850098025 0.7962386691983950 H
atom_frac 0.9393734307138575 0.6993629540040306 0.5544323877472336 H
atom_frac 0.9308799532066772 0.5140952997302507 0.4326493547997785 H
atom_frac 0.2451599594158935 0.6843926893109042 0.3100945397707874 H
atom_frac 0.2603574963485968 0.8686924306132725 0.4375750661015516 H
atom_frac 0.8140647439767078 0.4433077488341937 0.2718684985336138 H
atom_frac 0.6509849566601316 0.2484243586356457 0.2072953146908957 H
atom_frac 0.0066047448122148 0.1139968835279390 0.1823742061046190 H
atom_frac 0.1738405230092752 0.3101720967030133 0.2536365676562581 H
atom_frac 0.4775130917297545 0.8723100506541217 0.0507532478627937 H
atom_frac 0.3647395382067771 0.6747095640871806 0.9404342936909412 H
atom_frac 0.7536654583186364 0.6306371354776489 0.8899921133872012 H
atom_frac 0.8815978959629264 0.8279854830302399 0.9948948253275487 H
atom_frac 0.3095942347835249 0.5641387989474254 0.5766467300734915 H
atom_frac 0.6726310805526268 0.4354125487719431 0.5926011540070562 H
atom_frac 0.0689724156134873 0.4636541985748295 0.8378163385129581 H
atom_frac 0.8192425565542649 0.4586251953829716 0.8468967113621841 H
atom_frac 0.7472469450973803 0.7296886279845722 0.2630176992861379 C
atom_frac 0.8052277497687897 0.8430639364435849 0.3160024957038415 C
atom_frac 0.7147059548684850 0.9143579691691882 0.3329698172371423 C
atom_frac 0.5671315315641012 0.8616306060160145 0.2901196478746684 C
atom_frac 0.5178544956491534 0.7478544655366904 0.2376930692946003 C
atom_frac 0.8860846790348801 0.0965233206280445 0.4173014476869453 C
atom_frac 0.9952920400975741 0.3049024740938933 0.5004617236874083 C
atom_frac 0.0007195903834258 0.4082656790766137 0.5688469801546602 C
atom_frac 0.9133979543126431 0.4108804297138420 0.6368083944182884 C
atom_frac 0.8222368367243149 0.3108407940734779 0.6366370752375089 C
atom_frac 0.8146248308044761 0.2089347053206794 0.5660242081721590 C
atom_frac 0.9005991426224043 0.2050274919856108 0.4969460994034093 C
atom_frac 0.9956867675903781 0.6125090573293193 0.7322227439514747 C
atom_frac 0.1422352413692208 0.6278029985746940 0.7450075420666236 C
atom_frac 0.2337625323180178 0.7366578633210781 0.7827428002248523 C
atom_frac 0.1813457659794224 0.8300617378614278 0.8111117980395547 C
atom_frac 0.0336925263223834 0.8130671743173680 0.7976929801964940 C
atom_frac 0.9406493029138544 0.7046411070942684 0.7577320673729204 C
atom_frac 0.2845449073903267 0.9444298218562251 0.8564802017007336 C
atom_frac 0.3073660422768469 0.1310155001030680 0.9639079477187945 C
atom_frac 0.4577962376817198 0.1788928680055690 0.9833865333810647 C
atom_frac 0.5202243548929602 0.2896975528520969 0.0433238034331325 C
atom_frac 0.3032058269711796 0.3137294079583768 0.0721625737162981 C
atom_frac 0.2327605709452669 0.2039378915515329 0.0138567038270381 C
atom_frac 0.5151667068785458 0.5036673423120774 0.3066386932880220 C
atom_frac 0.5088405354439729 0.5006599595798420 0.4057855705590254 C
atom_frac 0.6079704022290997 0.4644638555760849 0.4571574281912588 C
atom_frac 0.4013175603522258 0.5360632688942460 0.4484844893868425 C
atom_frac 0.9616396266276652 0.5206722384995500 0.0912052824893550 C
atom_frac 0.1015442833753753 0.5241752641547209 0.0861554081269701 C
atom_frac 0.1410001717487362 0.5035422259144796 0.9948325741439630 C
atom_frac 0.2920207868798670 0.5070835832794246 0.9906377681056566 C
atom_frac 0.2531076217070237 0.2703830873717479 0.7368546035428378 C
atom_frac 0.1953987655966429 0.1569831144238307 0.6838603060028844 C
atom_frac 0.2860361874800147 0.0858004883031782 0.6666672681520963 C
atom_frac 0.4335882472855062 0.1387910420147378 0.7093332452544415 C
atom_frac 0.4825955084442555 0.2524282305265615 0.7619975359246566 C
atom_frac 0.1146348271962124 0.9039079701212812 0.5826660759107580 C
atom_frac 0.0050199925252770 0.6952068050587742 0.4999032174339105 C
atom_frac 0.9990662653053377 0.5918228177628108 0.4313463319568027 C
atom_frac 0.0861231511166949 0.5890732986837292 0.3631822663089393 C
atom_frac 0.1775129022838301 0.6890199127867266 0.3632900912605237 C
atom_frac 0.1854820838582826 0.7909492752029196 0.4339571462259001 C
atom_frac 0.0999434382708558 0.7949926319224903 0.5033629347719921 C
atom_frac 0.0036161674809350 0.3873709105681513 0.2676753727774183 C
atom_frac 0.8569652400117107 0.3718216459224594 0.2549025987696467 C
atom_frac 0.7657292039248773 0.2628748165724772 0.2174366632674775 C
atom_frac 0.8184707292981201 0.1695716957603040 0.1892989925142672 C
atom_frac 0.9661970238894285 0.1868879944258595 0.2023792488676861 C
atom_frac 0.0589490574034244 0.2954060645060751 0.2420701698290201 C
atom_frac 0.7156106377047917 0.0549244489426215 0.1452440105865235 C
atom_frac 0.6925897025594523 0.8689056229940423 0.0365464371020110 C
atom_frac 0.5419650320544704 0.8212503430972192 0.0165077169018771 C
atom_frac 0.4795258089736977 0.7105205133375990 0.9563569049457569 C
atom_frac 0.6967951051217797 0.6862651987995392 0.9281016372763558 C
atom_frac 0.7673104829865381 0.7958941171490254 0.9868025059398136 C
atom_frac 0.4846924296631555 0.4964389242576956 0.6931628655345176 C
atom_frac 0.4908785294477410 0.4992988512251558 0.5939496215688462 C
atom_frac 0.3916947088261580 0.5354419792638725 0.5425510528504132 C
atom_frac 0.5983759775350137 0.4638660900220800 0.5512373475992119 C
atom_frac 0.0383262541624348 0.4792056376414139 0.9085446517821650 C
atom_frac 0.8984230571031517 0.4757340727634086 0.9135964236649696 C
atom_frac 0.8589673996132987 0.4963679135056864 0.0049202130962840 C
atom_frac 0.7079995688880345 0.4929749499082945 0.0091580364801516 C
atom_frac 0.6057558329115835 0.6816203033232426 0.2238042763359685 N
atom_frac 0.7532651223136638 0.0244311525726459 0.3885062942871896 N
atom_frac 0.2293758053588846 0.0257406332092387 0.9058016943855376 N
atom_frac 0.4455853275941593 0.3590567288545189 0.0856550305465902 N
atom_frac 0.3945276117770788 0.3186114444010714 0.7761770721447474 N
atom_frac 0.2474207287865227 0.9758035515825370 0.6107740773307666 N
atom_frac 0.7706778375814450 0.9740099352195486 0.0948305460763450 N
atom_frac 0.5542863251108656 0.6410556220729546 0.9142697949070139 N
atom_frac 0.9870905753998753 0.0816939098195348 0.3765683854581992 O
atom_frac 0.8973692917459389 0.5076720859254634 0.7012919768083703 O
atom_frac 0.4106642289906972 0.9596857628481816 0.8463238130723026 O
atom_frac 0.6235582479409628 0.4960823236295013 0.2679993989119608 O
atom_frac 0.4123843668128444 0.5170150635088717 0.2510597846443757 O
atom_frac 0.3827522468989386 0.5491973301444304 0.0727920972552453 O
atom_frac 0.3140967479885504 0.4711561002670095 0.9038591112552934 O
atom_frac 0.0127509622637945 0.9193648913683462 0.6221867403003640 O
atom_frac 0.1017226689764641 0.4922532011654042 0.2985510513376184 O
atom_frac 0.5908644459844936 0.0391498258903127 0.1580711650811820 O
atom_frac 0.3763039166475438 0.5040084556967203 0.7318207097686694 O
atom_frac 0.5875843221101674 0.4832578475354338 0.7487775038033531 O
atom_frac 0.6173383097265984 0.4510022057823875 0.9269696312319551 O
atom_frac 0.6858886770439767 0.5289078380311807 0.0959227744549195 O
