#=======================================================
# FHI-aims file: ./geometry.in
# Created using the Atomic Simulation Environment (ASE)
# Wed Feb  9 14:46:25 2022
#=======================================================
lattice_vector 4.5464663600000002 -0.2051799500000000 -0.0689279700000000 
lattice_vector -1.8096501800000000 10.8665555999999999 -1.5825995600000000 
lattice_vector 0.1300563600000000 -0.9011638000000000 11.1452905399999995 
atom_frac 0.6307075700000000 0.0000442400000000 0.7500334699999999 Cu
    initial_moment         1.000000
atom_frac 0.3692928800000000 0.9999557600000000 0.2499666899999999 Cu
    initial_moment         1.000000
atom_frac 0.0246113000000000 0.3759161700000000 0.8924678099999999 H
atom_frac 0.6484733700000000 0.6240713000000000 0.6075473799999999 H
atom_frac 0.9753897800000000 0.6240838899999999 0.1075322600000000 H
atom_frac 0.3515263199999999 0.3759287400000000 0.3924526799999999 H
atom_frac 0.5874710100000001 0.8294148600000001 0.9190860199999997 C
atom_frac 0.7584232900000000 0.1706169200000000 0.5809234299999999 C
atom_frac 0.4125298900000000 0.1705852500000000 0.0809141600000000 C
atom_frac 0.2415767600000000 0.8293831800000000 0.4190767899999999 C
atom_frac 0.7053632399999998 0.7631155999999999 -0.0082983900000000 C
atom_frac 0.9425969800000000 0.2368895500000000 0.5082935299999999 C
atom_frac 0.2946379200000001 0.2368844200000000 1.0082983999999999 C
atom_frac 0.0574026500000000 0.7631105100000000 0.4917065199999999 C
atom_frac 0.6054722399999999 0.6284573400000000 0.9882188400000000 C
atom_frac 0.9771840400000000 0.3715429800000000 0.5117704399999999 C
atom_frac 0.3945289300000000 0.3715426900000000 0.0117811600000000 C
atom_frac 0.0228156100000000 0.6284570600000000 0.4882295799999999 C
atom_frac 0.3382035999999999 0.5520510299999999 0.9286920899999997 C
atom_frac 0.7861864400000000 0.4479380400000000 0.5713044599999999 C
atom_frac 0.6617975400000000 0.4479489999999999 0.0713079200000000 C
atom_frac 0.2138131800000000 0.5520620000000001 0.4286955799999999 C
atom_frac 0.2344171800000000 0.4295371200000000 0.9421900899999999 C
atom_frac 0.8047553399999999 0.5704559700000000 0.5578234699999999 C
atom_frac 0.7655839600000000 0.5704629200000000 0.0578099300000000 C
atom_frac 0.1952443100000000 0.4295440600000000 0.4421765699999999 C
atom_frac 0.9732801999999999 0.8229076700000001 0.0565189500000000 C
atom_frac 1.1508354599999999 0.1771067200000000 0.4434802999999999 C
atom_frac 0.0267209800000000 0.1770923700000000 0.9434810400000000 C
atom_frac -0.1508359100000000 0.8228932900000000 0.5565197299999999 C
atom_frac 0.5118763000000000 0.8952829900000000 0.8615522999999999 N
atom_frac 0.6169787600000000 0.1047902100000000 0.6384854899999999 N
atom_frac 0.4881243800000000 0.1047170800000000 0.1384478800000000 N
atom_frac 0.3830214599999999 0.8952098300000000 0.3615147100000000 N
atom_frac 1.2130470600000001 0.8586526400000000 0.1080027700000000 N
atom_frac 1.3549234400000001 0.1413729600000000 0.3919816199999999 N
atom_frac -0.2130459699999999 0.1413473600000000 0.8919972999999998 N
atom_frac -0.3549238500000000 0.8586270199999999 0.6080184899999997 N
atom_frac 0.1187757300000000 0.6067069399999999 0.8394497999999999 Cl
atom_frac 0.5121129600000000 0.3932605900000000 0.6605335099999999 Cl
atom_frac 0.8812253999999999 0.3932930600000000 0.1605502000000000 Cl
atom_frac 0.4878867500000000 0.6067393800000001 0.3394664800000000 Cl
