#=======================================================
# FHI-aims file: ./geometry.in
# Created using the Atomic Simulation Environment (ASE)
# Wed Feb  9 14:46:25 2022
#=======================================================
lattice_vector 6.6399788300000004 -0.0488039200000000 0.0128214700000000 
lattice_vector -3.5336430100000000 7.4697274499999997 0.1262467500000000 
lattice_vector -0.0341953100000000 0.0492241300000000 11.5860210899999991 
atom_frac 0.5666494600000000 0.4087498099999999 0.6022401600000000 V
atom_frac 0.4364778499999999 0.5935101799999999 0.0978259700000000 V
    initial_moment         1.000000
atom_frac 0.1401929200000000 0.5702830100000000 0.8943162300000000 V
atom_frac 0.8581743400000000 0.4314769199999999 0.3941881600000000 V
atom_frac 0.4333513700000000 0.5912505900000000 0.3977599700000000 V
atom_frac 0.5635230000000001 0.4064902100000001 0.9021741599999997 V
    initial_moment        -1.000000
atom_frac 0.8598079199999999 0.4297174000000000 0.1056839000000000 V
atom_frac 0.1418264999999999 0.5685234699999999 0.6058119799999999 V
atom_frac 0.2821448400000000 0.9558049900000000 0.7393151899999999 Cu
    initial_moment        -1.000000
atom_frac 0.7178558599999999 0.0441954200000000 0.2606848999999999 Cu
    initial_moment         1.000000
atom_frac 0.6586703000000000 0.0705760200000000 0.5711148299999999 H
atom_frac 0.4003430500000000 1.0393218200000001 0.0743910900000000 H
atom_frac 0.5996576400000000 -0.0393214700000000 0.9256090099999998 H
atom_frac 0.3413304300000000 0.9294244100000000 0.4288852800000000 H
atom_frac 0.0370841800000000 0.0789020000000000 0.5736014500000000 H
atom_frac 1.0334372000000003 1.0525835700000001 0.0769623800000000 H
atom_frac -0.0334365200000000 -0.0525832200000000 0.9230377099999999 H
atom_frac 0.9629165099999998 0.9210983399999999 0.4263986399999999 H
atom_frac 0.7255459500000000 0.0438189600000000 0.6516032700000000 C
atom_frac 0.3071641800000000 1.0172665100000000 0.1553359700000000 C
atom_frac 0.6928365300000000 -0.0172661200000000 0.8446641299999998 C
atom_frac 0.2744547899999999 0.9561814799999999 0.3483968300000000 C
atom_frac 0.9351628700000000 0.0451555300000000 0.6521787199999999 C
atom_frac 0.1009924700000000 1.0220305800000000 0.1559616100000000 C
atom_frac 0.8990082300000000 -0.0220302100000000 0.8440384799999999 C
atom_frac 0.0648378299999999 0.9548448499999999 0.3478213700000000 C
atom_frac 0.0273623400000000 0.0163825400000000 0.7487330599999998 N
atom_frac 0.9726383599999999 0.9836178200000001 0.2512670299999999 N
atom_frac 0.6049996499999999 0.0194147500000000 0.7487339899999998 N
atom_frac 0.3950010899999999 0.9805856900000000 0.2512661200000000 N
atom_frac 0.4090242000000000 0.1978374100000000 0.5996579000000000 O
atom_frac 0.5996115800000000 0.8019311000000000 0.0911234700000000 O
atom_frac 0.1889061000000001 0.7794892100000002 0.8710646399999998 O
atom_frac 0.8016805699999999 0.2192005400000000 0.3821544199999999 O
atom_frac 0.5909765500000000 0.8021630000000000 0.4003421999999999 O
atom_frac 0.4003892600000000 0.1980692900000000 0.9088766499999998 O
atom_frac 0.8110946699999999 0.2205111800000000 0.1289354700000000 O
atom_frac 0.1983202600000001 0.7807998400000001 0.6178457099999999 O
atom_frac 0.6227094900000000 0.4807351700000000 0.4324517199999999 O
atom_frac 0.3823912400000000 0.5262481100000000 0.9303939099999999 O
atom_frac 0.1485985799999999 0.5826176199999997 0.0749423200000000 O
atom_frac 0.8526127300000000 0.4211280300000000 0.5770464799999999 O
atom_frac 0.3772914200000000 0.5192653100000000 0.5675484300000000 O
atom_frac 0.6176096200000001 0.4737523000000001 0.0696062200000000 O
atom_frac 0.8514022800000000 0.4173827900000000 0.9250578099999999 O
atom_frac 0.1473881000000001 0.5788723400000001 0.4229536600000000 O
atom_frac 0.6046788400000002 0.4668392699999999 0.7504773299999999 O
atom_frac 0.3953220300000000 0.5331611200000000 0.2495228000000000 O
atom_frac 0.1343445500000000 0.5020105600000000 0.7498974799999999 O
atom_frac 0.8656562900000000 0.4979898200000000 0.2501026600000000 O
