#=======================================================
# FHI-aims file: ./geometry.in
# Created using the Atomic Simulation Environment (ASE)
# Tue Nov 30 12:20:15 2021
#=======================================================
lattice_vector 8.2400412190000001 0.0000581930000000 -0.6235256720000000 
lattice_vector 0.0000205470000000 11.7444318320000001 -0.0000425760000000 
lattice_vector 0.3560339750000000 0.0001898110000000 26.0452277710000004 
atom_frac 0.0000087398190658 0.5000024843778448 0.5000020292434328 Zn
atom_frac 0.5000179529559219 0.9999956634743297 0.0000025573185525 Zn
atom_frac 0.9854776873831168 0.4992155165516364 0.7378312088813246 H
atom_frac 0.5144454508886583 0.9992493091922439 0.7621681278446816 H
atom_frac 0.0144802971696691 0.5007572506448240 0.2621701072189140 H
atom_frac 0.4855076842025808 0.0007753975371756 0.2378330722438164 H
atom_frac 0.3039680015199410 0.3337489316847382 0.6360749158260363 H
atom_frac 0.1960090368682543 0.8337529434620379 0.8639353190587471 H
atom_frac 0.6960238453854330 0.6662570425256220 0.3639291307344906 H
atom_frac 0.8039875102120249 0.1662538821346971 0.1360722955533475 H
atom_frac 0.9068969684760901 0.7649838568172527 0.6662731562278169 H
atom_frac 0.5930722261196520 0.2649985355957368 0.8337265172659231 H
atom_frac 0.0930656664777558 0.2350118998977778 0.3337328786110874 H
atom_frac 0.4069512242414818 0.7350236163560737 0.1662763661738396 H
atom_frac 0.6931390277122915 0.7781845493493124 0.6547123818596744 H
atom_frac 0.8068263297058991 0.2781890728892903 0.8452903144931838 H
atom_frac 0.3068211826056526 0.2218001383033935 0.3452935949150842 H
atom_frac 0.1931945800475603 0.7218083864801271 0.1547151957162569 H
atom_frac 0.8129680802097496 0.7249961410621426 0.6055169674316687 H
atom_frac 0.6869916703528460 0.2249925988180550 0.8944811973631490 H
atom_frac 0.1869983243042483 0.2750055759536920 0.3944860860806969 H
atom_frac 0.3130160528942910 0.7750065636123082 0.1055205416351654 H
atom_frac 0.6316830455039053 0.5570912368636626 0.5963032633351800 H
atom_frac 0.8682886916486225 0.0570992237881782 0.9036896481747688 H
atom_frac 0.3683053964773038 0.4428917478338902 0.4036953264085453 H
atom_frac 0.1317072894681672 0.9428897212396877 0.0963029789065075 H
atom_frac 0.5128725285207382 0.5990598225445893 0.6475138110462239 H
atom_frac 0.9870942603114299 0.0990640301091190 0.8524764315733862 H
atom_frac 0.4871087057768618 0.4009154990103241 0.3524830703422309 H
atom_frac 0.0128933007612773 0.9009283208578577 0.1475144581466665 H
atom_frac 0.6054299341218938 0.4623247652043220 0.6484293759667497 H
atom_frac 0.8945276368266664 0.9623272092048933 0.8515637533649640 H
atom_frac 0.3945585244295202 0.5376590709666755 0.3515688302275635 H
atom_frac 0.1054442964965290 0.0376693992318522 0.1484236906520024 H
atom_frac 0.7145011704183730 0.5232707827930697 0.7395927680331127 H
atom_frac 0.7854524887222070 0.0232808162688940 0.7604011359082961 H
atom_frac 0.2854884673334864 0.4767079445552440 0.2604062342780368 H
atom_frac 0.2145143300729515 0.9767319699751340 0.2395923288526944 H
atom_frac 0.6315617117417958 0.6612286603602371 0.7287278598625947 H
atom_frac 0.8683996109514922 0.1612375206310261 0.7712693662137439 H
atom_frac 0.3684168658913122 0.3387415523180195 0.2712743331816156 H
atom_frac 0.1315755284578373 0.8387701567025300 0.2287281372102896 H
atom_frac 0.8394595783862185 0.6462866210129832 0.7480330863422965 H
atom_frac 0.6605007576490394 0.1463058288100356 0.7519606117514357 H
atom_frac 0.1605141830347847 0.3536946607786860 0.2519682235243579 H
atom_frac 0.3394768726900708 0.8537112146756484 0.2480354155310636 H
atom_frac 0.2113286673794548 0.2589495035289815 0.8055909535080660 H
atom_frac 0.2886083495791424 0.7589282753372188 0.6944272934093830 H
atom_frac 0.7886228742476219 0.7410624310562920 0.1944190392042557 H
atom_frac 0.7113990587862205 0.2410734413789086 0.3055817330572381 H
atom_frac 0.1004123635913317 0.2208120692802282 0.7473821791435498 H
atom_frac 0.3995160972357751 0.7208023352978115 0.7526418814317566 H
atom_frac 0.8995378497122246 0.7791939049974062 0.2526304693912990 H
atom_frac 0.6004766139686526 0.2792087475815919 0.2473702487259644 H
atom_frac 0.0379835033410671 0.3394731321644358 0.7835695783615790 H
atom_frac 0.4619666024592989 0.8394545831238955 0.7164454056967459 H
atom_frac 0.9619827188440339 0.6605413567940487 0.2164376942291568 H
atom_frac 0.5380310409398988 0.1605547968255294 0.2835649227979999 H
atom_frac 0.2128678992139541 0.5236982567070072 0.7857086556051202 H
atom_frac 0.2870684617086425 0.0236935866642582 0.7142957522909300 H
atom_frac 0.7871276344136645 0.4763043116329584 0.2142943273678881 H
atom_frac 0.7128906687995099 0.9763132391944038 0.2857071270892746 H
atom_frac 0.3955009593720931 0.5255762149943237 0.7531443975407724 H
atom_frac 0.1044474157928121 0.0255808168032843 0.7468626078174977 H
atom_frac 0.6044922325055210 0.4744059181732894 0.2468566095995897 H
atom_frac 0.8955225262920052 0.9744174942871024 0.2531428340641285 H
atom_frac 0.3810096712609835 0.4401757620346415 0.8092080529125454 H
atom_frac 0.1189231613777153 0.9401750647168681 0.6908018555722251 H
atom_frac 0.6189737887952234 0.5598140343785117 0.1907934891544443 H
atom_frac 0.8810430608400922 0.0598266522316848 0.3092054169984166 H
atom_frac 0.4885676664816003 0.3505046165173836 0.7059300677768264 H
atom_frac 0.0113714219832985 0.8505305965349802 0.7940858405067530 H
atom_frac 0.5114007981893424 0.6494638931251090 0.2940814818465682 H
atom_frac 0.9886106931421142 0.1494668630416740 0.2059187409549423 H
atom_frac 0.3674973775850319 0.2247460873573032 0.7033931044559624 H
atom_frac 0.1324218781081967 0.7247622710671635 0.7966188462792161 H
atom_frac 0.6324410604739513 0.7752377489629938 0.2966111992445875 H
atom_frac 0.8675651029050185 0.2752402972936707 0.2033854677332343 H
atom_frac 0.4662335284947191 0.2687893468743354 0.7623738288151074 H
atom_frac 0.0336890059431951 0.7688194845219056 0.7376414160109518 H
atom_frac 0.5337011234622651 0.7311766085964352 0.2376338397439781 H
atom_frac 0.9663003168701894 0.2311839352627274 0.2623648738033353 H
atom_frac 0.3364407684870798 0.5253946147946281 0.4698523634754252 H
atom_frac 0.1635678952208934 0.0253971212544712 0.0301467842783580 H
atom_frac 0.6635561431768480 0.4746156168059912 0.5301468130254889 H
atom_frac 0.8364679105140879 0.9746097043062957 0.9698510196604317 H
atom_frac 0.5793882768468137 0.6492545301065887 0.4779133135932980 H
atom_frac 0.9206331959343004 0.1492615615232608 0.0220806203799455 H
atom_frac 0.4206121889624940 0.3507514441073739 0.5220878677247853 H
atom_frac 0.0794220568209454 0.8507495212888898 0.9779164972871541 H
atom_frac 0.3007338542186915 0.8787104170654770 0.5684923480302899 H
atom_frac 0.1993054788427102 0.3787004476543601 0.9315033993748543 H
atom_frac 0.6992691356738804 0.1213015174435412 0.4315065900393833 H
atom_frac 0.8007466010104312 0.6212842398612891 0.0684828917595652 H
atom_frac 0.0699493244305103 0.7416246599867193 0.5566868872261068 H
atom_frac 0.4300952288170238 0.2416128732547520 0.9433162159110753 H
atom_frac 0.9300619032186931 0.2583804626465778 0.4433180072577018 H
atom_frac 0.5699603223130509 0.7583701112456468 0.0566739977982849 H
atom_frac 0.5811204506619773 0.9302051662948685 0.5532742216972296 H
atom_frac 0.9189092764766400 0.4302010435461056 0.9467097795096394 H
atom_frac 0.4188923704753763 0.0698033623419576 0.4467218801480115 H
atom_frac 0.0811453440190633 0.5697947130746854 0.0532738848336649 H
atom_frac 0.7358574563748166 0.7787415876918548 0.4725061066421859 H
atom_frac 0.7641974972055510 0.2787474404070522 0.0274844448369080 H
atom_frac 0.2641541690049749 0.2212660894902355 0.5274895826275953 H
atom_frac 0.2358714392274450 0.7212619395276578 0.9725049375187640 H
atom_frac 0.8133395849310574 0.0161135308428229 0.5711195512703711 H
atom_frac 0.6866608590707061 0.5160823290608292 0.9288597073912470 H
atom_frac 0.1866731367654708 0.9838975521592843 0.4288788518834040 H
atom_frac 0.3134298496256136 0.4839261992716287 0.0711313480359479 H
atom_frac 0.0466483735531611 0.1472314321127257 0.5677616973447215 H
atom_frac 0.4533549608666759 0.6472085478825063 0.9322232166928686 H
atom_frac 0.9533644144328903 0.8527796509138525 0.4322351716060382 H
atom_frac 0.5467356649655600 0.3528008318866967 0.0677697564894260 H
atom_frac 0.1076002082528476 0.4288645043730453 0.5995524358162996 C
atom_frac 0.3923863895252637 0.9288696470413881 0.9004502759956525 C
atom_frac 0.8923979323439398 0.5711346581519406 0.4004463861398193 C
atom_frac 0.6076091275234320 0.0711354756944544 0.0995530905321331 C
atom_frac 0.9703974195312881 0.5078294448408299 0.6070904606206754 C
atom_frac 0.5295888362757282 0.0078266619424667 0.8929091645013331 C
atom_frac 0.0295897603461270 0.4921748265280639 0.3929092507854293 C
atom_frac 0.4704152831132404 0.9921750549215389 0.1070917203294002 C
atom_frac 0.9233321433589909 0.5297294394376024 0.6584320935761667 C
atom_frac 0.5766309659087128 0.0297397703377484 0.8415670490361435 C
atom_frac 0.0766366692621432 0.4702663172878658 0.3415714015243054 C
atom_frac 0.4233574262593862 0.9702806789039117 0.1584326914187812 C
atom_frac 0.0182280479708155 0.4827058818273073 0.6986698817741726 C
atom_frac 0.4816977070460453 0.9827261150083046 0.8013303976658790 C
atom_frac 0.9817276278938536 0.5172788059675212 0.3013286914428335 C
atom_frac 0.5182614565828771 0.0172900770032101 0.1986717146275581 C
atom_frac 0.1582661248045341 0.4134418282160721 0.6923836778498824 C
atom_frac 0.3416802301341733 0.9134530281152634 0.8076253151335777 C
atom_frac 0.8417085837752439 0.5865454137425556 0.3076237978615524 C
atom_frac 0.6582886321670287 0.0865572035731432 0.1923770293374147 C
atom_frac 0.1998688581458552 0.3869856230725048 0.6432656296076544 C
atom_frac 0.3001104150153608 0.8869964988907878 0.8567429131030765 C
atom_frac 0.8001241182559156 0.6130101334928497 0.3567403637139178 C
atom_frac 0.6998802029833228 0.1130103267872613 0.1432614879861731 C
atom_frac 0.7736975856420472 0.6029843300505460 0.6670644669507554 C
atom_frac 0.7262592523950886 0.1029960116118644 0.8329309255536261 C
atom_frac 0.2262737345314250 0.3970012090845997 0.3329371684266178 C
atom_frac 0.2737293718146958 0.8970133686401593 0.1670634451733548 C
atom_frac 0.7989575785099134 0.7252611965909566 0.6470779057085424 C
atom_frac 0.7010058076684516 0.2252665220889227 0.8529203470043923 C
atom_frac 0.2010075971279335 0.2747294513499625 0.3529255023137949 C
atom_frac 0.2990056022856607 0.7747351947423483 0.1470803284157824 C
atom_frac 0.6220232479043730 0.5519741449360254 0.6379207396680968 C
atom_frac 0.8779388333799359 0.0519816784819653 0.8620715400012813 C
atom_frac 0.3779579035204250 0.4480054339249547 0.3620780594808223 C
atom_frac 0.1220475319242951 0.9480140783669173 0.1379189371500189 C
atom_frac 0.7391660121361099 0.6083793253272063 0.7242541724975169 C
atom_frac 0.7607883901728770 0.1083899588770763 0.7757407953843938 C
atom_frac 0.2608114028580246 0.3916002535165007 0.2757468408858159 C
atom_frac 0.2391856031873019 0.8916202728894121 0.2242551448172847 C
atom_frac 0.2545594365063337 0.3696547198425931 0.7403567460293559 C
atom_frac 0.2453725284951744 0.8696607615070562 0.7596532950818257 C
atom_frac 0.7454116847920247 0.6303333736211413 0.2596494919610635 C
atom_frac 0.7545950386250836 0.1303443613532664 0.2403509381115185 C
atom_frac 0.1441376829959253 0.2930039775249256 0.7711441879940536 C
atom_frac 0.3558028627655219 0.7929903361803028 0.7288727189630962 C
atom_frac 0.8558187411087773 0.7070062541120237 0.2288651537075594 C
atom_frac 0.6441912264991957 0.2070190438191375 0.2711356047077942 C
atom_frac 0.3141288890011680 0.4710125506255594 0.7740703079159631 C
atom_frac 0.1858124045625331 0.9710117576867600 0.7259368323616471 C
atom_frac 0.6858557833849871 0.5289780972484407 0.2259312631757311 C
atom_frac 0.8141587167074678 0.0289874048522520 0.2740694056461805 C
atom_frac 0.4025667140450295 0.2995835522214633 0.7268618881900507 C
atom_frac 0.0973593162269921 0.7996033963778544 0.7731531570405962 C
atom_frac 0.5973824693010955 0.7003917693060941 0.2731465122149217 C
atom_frac 0.9026215699851861 0.2003974690684700 0.2268517789538436 C
atom_frac 0.3344196045667900 0.6050499006689305 0.4911504357629539 C
atom_frac 0.1656007909749420 0.1050445607951005 0.0088488693160969 C
atom_frac 0.6655833024638796 0.3949620338095058 0.5088504200604832 C
atom_frac 0.8344423716408755 0.8949520471494523 0.9911471909930539 C
atom_frac 0.4688990884612494 0.6751087457933593 0.4955940288237812 C
atom_frac 0.0311187886276656 0.1751150999458986 0.0043993018720698 C
atom_frac 0.5311062598235098 0.3248963769396056 0.5044065014849224 C
atom_frac 0.9689257520179165 0.8248917256612955 0.9955929519690159 C
atom_frac 0.4605771656834747 0.7779689999515182 0.5232062061181821 C
atom_frac 0.0394579335673981 0.2779676654982097 0.9767868068952552 C
atom_frac 0.5394294777778585 0.2220429345441842 0.4767924354708484 C
atom_frac 0.9606000421920344 0.7220289424665012 0.0232034648822790 C
atom_frac 0.3145695077892867 0.8007716435831824 0.5464024497122750 C
atom_frac 0.1854653586545112 0.3007628002138247 0.9535933198986656 C
atom_frac 0.6854394609085618 0.1992377364608870 0.4535985512239833 C
atom_frac 0.8145818387297226 0.6992201843808418 0.0463936222411121 C
atom_frac 0.1852477857613408 0.7252770408853522 0.5397678896535467 C
atom_frac 0.3147908890127553 0.2252641470005656 0.9602327156188012 C
atom_frac 0.8147623786897144 0.2747348935481070 0.4602335238608433 C
atom_frac 0.6852645461062893 0.7747205403916695 0.0397601829485055 C
atom_frac 0.5945509982720196 0.8581637207287613 0.5272744960673919 C
atom_frac 0.9054777861582652 0.3581657023814272 0.9727115507343312 C
atom_frac 0.4054496498334714 0.1418422535524897 0.4727224661924154 C
atom_frac 0.0945767514559037 0.6418377174147449 0.0272740313747875 C
atom_frac 0.7275612446695447 0.8493840291616479 0.4996093484683115 C
atom_frac 0.7724873682122748 0.3493872699277816 0.0003793624296691 C
atom_frac 0.2724527059467547 0.1506210935688017 0.5003887001486973 C
atom_frac 0.2275816676724531 0.6506152983049913 0.9996077186107756 C
atom_frac 0.8647538582511842 0.9262657151423568 0.5011699564326193 C
atom_frac 0.6352854220063975 0.4262601644579077 0.9988181000700180 C
atom_frac 0.1352576842688862 0.0737411105418175 0.4988276505895826 C
atom_frac 0.3647824844015660 0.5737449582139078 0.0011670341973158 C
atom_frac 0.8942804014001097 0.0092303752008434 0.5397306295352919 C
atom_frac 0.6057307236678114 0.5092100298504361 0.9602550055062125 C
atom_frac 0.1057298790576056 0.9907815592754330 0.4602680991238374 C
atom_frac 0.3943393919590932 0.4907967956635701 0.0397351729703104 C
atom_frac 0.0258668813216545 0.0818835970943184 0.5382748914349946 C
atom_frac 0.4741633265932918 0.5818663653518000 0.9617135238987589 C
atom_frac 0.9741555556129953 0.9181240799927861 0.4617233603496019 C
atom_frac 0.5259274484034575 0.4181379056684733 0.0382759973187277 C
atom_frac 0.1932647338215858 0.6293426260843232 0.5119952275007336 N
atom_frac 0.3067646177548440 0.1293348742176619 0.9880075285671026 N
atom_frac 0.8067417439203057 0.3706676054155552 0.4880072495931316 N
atom_frac 0.6932834107771341 0.8706557734358072 0.0119882642753879 N
atom_frac 0.1401295724853568 0.4014035653048750 0.5533693774049837 O
atom_frac 0.3598848342021554 0.9013981711657234 0.9466389016750939 O
atom_frac 0.8598841129685012 0.5986032602623652 0.4466348080267366 O
atom_frac 0.6401384339369471 0.0985950308296353 0.0533682007773919 O
atom_frac 0.8991629983608220 0.5541766649454019 0.5669359061569565 O
atom_frac 0.6008387803308822 0.0541710266305557 0.9330642421071076 O
atom_frac 0.1008350262074913 0.4458310122100571 0.4330656006678241 O
atom_frac 0.3991858989914618 0.9458289871703514 0.0669382867704371 O
