#=======================================================
# FHI-aims file: ./geometry.in
# Created using the Atomic Simulation Environment (ASE)
# Tue Nov 30 12:20:16 2021
#=======================================================
lattice_vector 4.7472113560000002 -0.0778553840000000 -1.1318441180000001 
lattice_vector -1.3680820290000000 6.4904827730000001 0.0892779410000000 
lattice_vector 0.0173806180000000 0.1831987020000000 8.3585099619999994 
atom_frac 0.5000043533111053 0.9999961379741007 0.5000053130358778 Mn
atom_frac 0.0000052457258448 0.5000032431223147 0.9999960178673600 Mn
atom_frac 0.2689550936906642 0.8692768659370882 0.8495315581763164 H
atom_frac 0.7310404313448444 0.1307221715284470 0.1504673933079559 H
atom_frac 0.5007441124890517 0.7748772422186149 0.9819842138067966 H
atom_frac 0.4992530920794991 0.2251203015752026 0.0180137846752686 H
atom_frac 0.0971052852902048 0.3668122872682317 0.6144767217592316 C
atom_frac 0.9028927810655387 0.6331882783773253 0.3855237539136454 C
atom_frac 0.4283603656977489 0.3671829028258101 0.3060384970998554 C
atom_frac 0.5716393801910371 0.6328161691480287 0.6939610255708073 C
atom_frac 0.7321201180999352 0.4379114480207208 0.4050398973396908 C
atom_frac 0.2678783932919444 0.5620906624453851 0.5949606220961456 C
atom_frac 0.1996893211092257 0.2208158647853652 0.7460496220171533 C
atom_frac 0.8003108556731604 0.7791847181143365 0.2539511392489118 C
atom_frac 0.8316258935442491 0.3066510390777637 0.5189625570024743 N
atom_frac 0.1683726319901736 0.6933511052830138 0.4810367676009120 N
atom_frac 0.3240532861304003 0.4993959380612551 0.2126028171061947 O
atom_frac 0.6759422389051081 0.5006030994042804 0.7873961343780778 O
atom_frac 0.2948562062811745 0.1850938329630978 0.3278833762113037 O
atom_frac 0.7051460950703898 0.8149068010854420 0.6721164758155138 O
atom_frac 0.2961864949805459 0.0731442818088723 0.7040880250253067 O
atom_frac 0.7038106954454618 0.9268532280902660 0.2959111682892014 O
atom_frac 0.1721268000553522 0.2523058549422075 0.8896580123453006 O
atom_frac 0.8278746112239402 0.7476916894652347 0.1103417521555983 O
atom_frac 0.2958099104882378 0.7492396806406985 0.9210936119273256 O
atom_frac 0.7041856004047345 0.2507593229301577 0.0789065343893895 O
