#=======================================================
# FHI-aims file: ./geometry.in
# Created using the Atomic Simulation Environment (ASE)
# Wed Feb  9 14:46:26 2022
#=======================================================
lattice_vector 5.5513591599999996 0.6474710900000000 0.0002191000000000 
lattice_vector -0.3796734300000000 7.1177089499999999 0.0001643100000000 
lattice_vector -0.0011255800000000 0.0001446200000000 20.7650169600000005 
atom_frac 0.9999997200000000 0.4999864300000000 1.0000602300000001 Cu
atom_frac -0.0000004400000000 0.4999865199999999 0.5000601500000000 Cu
atom_frac 0.6796272899999999 0.7603070299999998 0.9989757700000000 Cu
atom_frac 0.3203741900000000 0.2396675600000000 0.4989801500000001 Cu
atom_frac 0.3203721700000000 0.2396658300000000 0.0011447000000000 Cu
atom_frac 0.6796249800000000 0.7603054400000000 0.5011402900000000 Cu
atom_frac 0.0465428700000000 0.5167833499999999 0.7500599500000000 Cu
    initial_moment         1.000000
atom_frac 0.9534563200000000 0.4831895599999999 0.2500605200000001 Cu
    initial_moment        -1.000000
atom_frac 0.0255356400000000 0.9959337200000000 0.7500606300000001 Cu
    initial_moment        -1.000000
atom_frac 0.9744637599999999 0.0040391700000000 0.2500598500000000 Cu
    initial_moment         1.000000
atom_frac 0.7758950200000000 0.0496131100000000 0.1084484200000000 H
atom_frac 0.2241136700000000 0.9503537899999999 0.6084528100000000 H
atom_frac 0.2241048400000000 0.9503596799999999 0.8916719900000002 H
atom_frac 0.7758857899999999 0.0496191700000000 0.3916676700000000 H
atom_frac 0.6933068200000000 0.4666141600000000 0.1154101400000000 H
atom_frac 0.3066916100000000 0.5333539400000000 0.6154143800000001 H
atom_frac 0.3066922799999999 0.5333587399999999 0.8847103500000001 H
atom_frac 0.6933074200000000 0.4666190999999999 0.3847060600000001 H
atom_frac 0.7579727100000001 0.4651179899999999 0.8860883400000003 H
atom_frac 0.2420231800000000 0.5348602299999999 0.3860903100000000 H
atom_frac 0.2420263800000000 0.5348548999999999 0.1140321200000000 H
atom_frac 0.7579759200000000 0.4651128100000000 0.6140301400000001 H
atom_frac 0.7295495300000000 0.0553326400000000 0.8878489600000001 H
atom_frac 0.2704523400000000 0.9446455799999999 0.3878544600000001 H
atom_frac 0.2704500700000000 0.9446402299999997 0.1122715300000000 H
atom_frac 0.7295470399999999 0.0553274600000000 0.6122660200000001 H
atom_frac 0.7780416000000000 0.9039539599999998 0.1244534300000000 C
atom_frac 0.2219617000000000 0.0960122900000000 0.6244569100000001 C
atom_frac 0.2219580200000000 0.0960188700000000 0.8756670100000000 C
atom_frac 0.7780376700000000 0.9039606899999998 0.3756635500000000 C
atom_frac 0.7341744700000000 0.6098649099999999 0.1276689800000000 C
atom_frac 0.2658234300000000 0.3901016800000000 0.6276722200000001 C
atom_frac 0.2658247400000000 0.3901079799999999 0.8724515000000000 C
atom_frac 0.7341756900000000 0.6098713399999999 0.3724482300000000 C
atom_frac 0.7744823500000001 0.6112010099999999 0.8722142600000000 C
atom_frac 0.2255151300000000 0.3887783799999999 0.3722163300000000 C
atom_frac 0.2255168800000000 0.3887718700000000 0.1279062000000000 C
atom_frac 0.7744840400000000 0.6111946499999998 0.6279041200000000 C
atom_frac 0.7575441800000000 0.9093281100000000 0.8726252700000001 C
atom_frac 0.2424580600000000 0.0906510600000000 0.3726296000000001 C
atom_frac 0.2424553000000000 0.0906447700000000 0.1274952100000000 C
atom_frac 0.7575412600000001 0.9093219499999998 0.6274908600000000 C
atom_frac 0.3741626000000000 0.7447965000000000 0.7500599800000001 Br
atom_frac 0.6258367100000000 0.2551763500000000 0.2500604700000000 Br
atom_frac 0.2137880000000000 0.7616722900000000 0.0000481500000000 Br
atom_frac 0.7862137199999999 0.2383001600000000 0.5000479100000000 Br
atom_frac 0.7862114999999998 0.2383005500000000 1.0000723200000001 Br
atom_frac 0.2137854700000000 0.7616728499999998 0.5000723600000000 Br
atom_frac 0.8570813200000000 0.8426795199999999 0.1815152300000000 N
atom_frac 0.1429148400000000 0.1572830900000000 0.6815163900000001 N
atom_frac 0.1429181300000000 0.1572933300000000 0.8186052300000001 N
atom_frac 0.8570845800000000 0.8426898499999999 0.3186040700000001 N
atom_frac 0.8287534600000001 0.6578510799999999 0.1834923600000000 N
atom_frac 0.1712385000000000 0.3421116599999999 0.6834938600000001 N
atom_frac 0.1712457200000000 0.3421217999999999 0.8166281200000000 N
atom_frac 0.8287607600000000 0.6578612999999999 0.3166266000000000 N
atom_frac 0.7021734700000000 0.7613838199999999 0.0887088900000000 N
atom_frac 0.2978336400000000 0.2385863799999999 0.5887134700000000 N
atom_frac 0.2978260000000000 0.2385890400000000 0.9114115699999999 N
atom_frac 0.7021655600000000 0.7613866599999999 0.4114069800000000 N
atom_frac 0.8741810700000000 0.6656857699999998 0.8180732500000000 N
atom_frac 0.1258217500000000 0.3342940200000000 0.3180738300000000 N
atom_frac 0.1258181700000000 0.3342870999999999 0.1820472100000000 N
atom_frac 0.8741774800000000 0.6656789400000001 0.6820466200000002 N
atom_frac 0.8633968100000000 0.8531906700000000 0.8181858000000001 N
atom_frac 0.1366097300000000 0.1467891700000000 0.3181875300000000 N
atom_frac 0.1366025700000000 0.1467822000000000 0.1819346700000000 N
atom_frac 0.8633895900000000 0.8531837999999999 0.6819329300000001 N
atom_frac 0.7029006100000000 0.7611009900000000 0.9090437700000000 N
atom_frac 0.2970956100000000 0.2388762000000000 0.4090481100000000 N
atom_frac 0.2970987700000000 0.2388719000000000 0.0910767000000000 N
atom_frac 0.7029036000000000 0.7610968400000001 0.5910723400000000 N
