#=======================================================
# FHI-aims file: ./geometry.in
# Created using the Atomic Simulation Environment (ASE)
# Fri Jan 14 15:05:30 2022
#=======================================================
lattice_vector 9.6703674310000007 0.0000000000000000 2.7849970000000002 
lattice_vector 5.1295136850000000 -12.2018813089999991 0.3583160000000000 
lattice_vector 9.5943937500000001 -0.3888707550000000 -15.1252430689999997 
atom_frac 0.4244348051509518 0.9002428140552754 0.9319652582703239 Cd
atom_frac 0.2565852927787162 0.5997493766967850 0.5681560970022445 Cd
atom_frac 0.5755732502671264 0.0997479195171778 0.0680373231761848 Cd
atom_frac 0.7434022283431148 0.4002597042339744 0.4318365266670057 Cd
atom_frac 0.6721887102449738 0.7932986080651432 0.7798337568331988 H
atom_frac 0.2450353162146187 0.7066561616885069 0.7203817340373958 H
atom_frac 0.3278144908071069 0.2066862319876677 0.2201737414839045 H
atom_frac 0.7549675349947619 0.2933513809879997 0.2796077255879438 H
atom_frac 0.7483200695358573 0.6442474231083609 0.6946508734057842 H
atom_frac 0.0873927984214120 0.8561672743591658 0.8052252158159658 H
atom_frac 0.2516747008282180 0.3557389779065758 0.3053590764340299 H
atom_frac 0.9126073502427869 0.1438333748152232 0.1947748223744198 H
atom_frac 0.3894233755736777 0.5429975956686163 0.8452622943558055 H
atom_frac 0.7779055762841551 0.9570505297183800 0.6546983191388734 H
atom_frac 0.6105797380937616 0.4569869711859340 0.1547537763023925 H
atom_frac 0.2220966643950603 0.0429724287773467 0.3452960212946437 H
atom_frac 0.3221344775227304 0.7020187759251540 0.9180690882034100 H
atom_frac 0.9423320944723489 0.7979844955811471 0.5819617330096775 H
atom_frac 0.6778762434612490 0.2979666705230387 0.0819450982884575 H
atom_frac 0.0576713102628261 0.2020486411478331 0.4180218233932536 H
atom_frac 0.3767012462601398 0.3081863942006180 0.8085622096097467 H
atom_frac 0.4938415314244365 0.1918797947058408 0.6914778649374611 H
atom_frac 0.6232993721559553 0.6917961305416397 0.1914407914410319 H
atom_frac 0.5061701219733193 0.8081256584635170 0.3085257277079805 H
atom_frac 0.3871792107988697 0.1864468049332331 0.9357561891287601 H
atom_frac 0.5097811089738259 0.3132660756882260 0.5641322302987106 H
atom_frac 0.6128287991595728 0.8135365585585673 0.0642462093505856 H
atom_frac 0.4902221571273843 0.6867273743511717 0.4358622610378403 H
atom_frac 0.7406176417747903 0.2555738477968319 0.9602374020093832 H
atom_frac 0.9568175362268220 0.2442920678126299 0.5394007677953212 H
atom_frac 0.2593803846048885 0.7444177635105476 0.0397633535930524 H
atom_frac 0.0431891929969621 0.7557148016341557 0.4605841007652600 H
atom_frac 0.7411160914945044 0.3837652505891853 0.8380212643969144 H
atom_frac 0.9633432656432602 0.1161681424537520 0.6616854329720069 H
atom_frac 0.2588778360954860 0.6162189933504507 0.1619792231131214 H
atom_frac 0.0366723971467309 0.8838507479744848 0.3383079767580880 H
atom_frac 0.0110009571489016 0.3487680667537205 0.6424331012027976 H
atom_frac 0.0025760937189006 0.1512995519169422 0.8575106796205034 H
atom_frac 0.9889964971463384 0.6512446737895773 0.3575475540740669 H
atom_frac 0.9974261670407858 0.8486974933428471 0.1424995792875663 H
atom_frac 0.9008352119030149 0.4337037275181927 0.7166355144195578 H
atom_frac 0.0514159614050413 0.0664179960172504 0.7832820851129226 H
atom_frac 0.0991650472145764 0.5662856244612940 0.2833589873075226 H
atom_frac 0.9485866544406674 0.9335882659092292 0.2167218460550373 H
atom_frac 0.8631683668534574 0.4875473023627848 0.5443599996254206 H
atom_frac 0.8953392542974613 0.0124993475861004 0.9555731294694424 H
atom_frac 0.1368031147973808 0.5124689271461378 0.4556397572562291 H
atom_frac 0.1046722555206116 0.9874856964024447 0.0444279698074794 H
atom_frac 0.6122484237952931 0.7361866075920885 0.7915699211835657 C
atom_frac 0.1399273449019773 0.7638931321064247 0.7085044728476079 C
atom_frac 0.3877569760036934 0.2637981353492265 0.2084406242718018 C
atom_frac 0.8600755661685752 0.2361183785284169 0.2914890586789767 C
atom_frac 0.6557417674932322 0.6521242368488060 0.7450482185235431 C
atom_frac 0.0530760677458629 0.8481868783263734 0.7548636122310768 C
atom_frac 0.3442611795257803 0.3478514912180941 0.2549623228883462 C
atom_frac 0.9469290507388092 0.1518163669261270 0.2451321133774726 C
atom_frac 0.5782177137508243 0.5780466565065082 0.7645812970515279 C
atom_frac 0.9210086255870987 0.9221662582008676 0.7353516987111206 C
atom_frac 0.4217685891881899 0.4219530443811834 0.2354227807374514 C
atom_frac 0.0789940076484114 0.0778509444460695 0.2646432387941502 C
atom_frac 0.4563857100054277 0.5953654917540235 0.8290182020579168 C
atom_frac 0.8809772079655500 0.9047343858989124 0.6709386183861952 C
atom_frac 0.5436286746852018 0.4046127734106690 0.1709898774407392 C
atom_frac 0.1190241574150193 0.0952821105282382 0.3290527632078195 C
atom_frac 0.4193665997609767 0.6837805011168570 0.8700100987628473 C
atom_frac 0.9732625874044343 0.8162566148652673 0.6300130945251395 C
atom_frac 0.5806418690824698 0.3162026070281740 0.1300003119182236 C
atom_frac 0.0267364630415229 0.1837665097197529 0.3699760344035212 C
atom_frac 0.5574118447315257 0.3572723337225057 0.8122888771323530 C
atom_frac 0.7273979786842374 0.1427671776630818 0.6875596580518817 C
atom_frac 0.4426086333216119 0.6426920581641156 0.1877173510888639 C
atom_frac 0.2726161917540180 0.8572318567099728 0.3124396179682449 C
atom_frac 0.4566228192685102 0.2999246762710968 0.8417313317886934 C
atom_frac 0.5986715918416435 0.2000260912149727 0.6581759440658174 C
atom_frac 0.5433819910562361 0.7000702551856791 0.1582681070037850 C
atom_frac 0.4013349482113284 0.7999836339576093 0.3418221802428647 C
atom_frac 0.4617423227289233 0.2332279174226670 0.9120270143826730 C
atom_frac 0.6074268118731042 0.2665335769195423 0.5878017995066499 C
atom_frac 0.5382565948173762 0.7667602866212918 0.0879777914700028 C
atom_frac 0.3925800067481333 0.7334672226360937 0.4121935200616774 C
atom_frac 0.6581364287755564 0.2728770856334037 0.9263391101636528 C
atom_frac 0.8577701804543734 0.2269740775443978 0.5733505096918492 C
atom_frac 0.3418578271102033 0.7271168361281680 0.0736662950869302 C
atom_frac 0.1422361236885548 0.7730342427578805 0.4266402652872471 C
atom_frac 0.6585125527875272 0.3439422704530771 0.8582986364802636 C
atom_frac 0.8611969794814059 0.1559764801385342 0.6414303445216305 C
atom_frac 0.3414823568883703 0.6560533063844574 0.1417062672143388 C
atom_frac 0.1388115688680641 0.8440391131329080 0.3585636605628935 C
atom_frac 0.5697485255086150 0.5510526605242063 0.5853637445040859 C
atom_frac 0.7064032669611535 0.9488785151492607 0.9146920330600636 C
atom_frac 0.4302315397549774 0.4489437380655801 0.4146410899554809 C
atom_frac 0.2936017591377933 0.0511164571516076 0.0853061241375173 C
atom_frac 0.6804029364478120 0.5062143750123127 0.6362069556764780 C
atom_frac 0.8228978114015959 0.9938440963227747 0.8638147577314824 C
atom_frac 0.3195805738153367 0.4937877358692547 0.3637986484314766 C
atom_frac 0.1771036058507747 0.0061540254665715 0.1361874376084913 C
atom_frac 0.8262000474189433 0.4772317528772447 0.6079263906225307 C
atom_frac 0.9114880101209908 0.0228848667311681 0.8920227811269540 C
atom_frac 0.1737832254677159 0.5227754203437059 0.3920746616791959 C
atom_frac 0.0885216761720499 0.9771108550617741 0.1079775741960631 C
atom_frac 0.9437480222428712 0.4346086432689376 0.6529853831946965 C
atom_frac 0.0315447227532172 0.0654910098434556 0.8469304180090446 C
atom_frac 0.0562391683835059 0.5654004606544163 0.3470065190190326 C
atom_frac 0.9684587171971798 0.9345095779224339 0.1530715470408596 C
atom_frac 0.0503254808767650 0.4994433966589896 0.6265859550255257 C
atom_frac 0.1765206478750515 0.0005435403520408 0.8733436000806165 C
atom_frac 0.9496543232083638 0.5005728682681863 0.3734126905116995 C
atom_frac 0.8234859765742897 0.9994521151760267 0.1266588344837417 C
atom_frac 0.4960617248177712 0.7528090406157020 0.8532229122373209 N
atom_frac 0.1019869389461332 0.7471398820423899 0.6469188923669335 N
atom_frac 0.5039447595865240 0.2471806726946042 0.1467859672339245 N
atom_frac 0.8980109042392782 0.2528832706763282 0.3530693537900547 N
atom_frac 0.6176588076985607 0.4923379189150623 0.7189821962270813 N
atom_frac 0.8290284431693850 0.0077547314102731 0.7809990436247888 N
atom_frac 0.3823486400668799 0.5076280187951028 0.2810269585309867 N
atom_frac 0.1709753352104570 0.9922408986970056 0.2190041885860197 N
atom_frac 0.5625195594661605 0.4109909488438603 0.7385672988803761 N
atom_frac 0.7124838078440092 0.0893176903020887 0.7613741592368227 N
atom_frac 0.4374668063223053 0.5890270628449414 0.2614279682130771 N
atom_frac 0.2875346360217322 0.9107198928224918 0.2386241722773050 N
atom_frac 0.5613949013510650 0.2185234668625142 0.9541025889499579 N
atom_frac 0.7344054833326439 0.2812429532341910 0.5456488124023052 N
atom_frac 0.4386052703818846 0.7814656119187120 0.0459004851182101 N
atom_frac 0.2655990831480680 0.7187555080182833 0.4543427313552257 N
atom_frac 0.4360695796844210 0.5914655245443116 0.6221806809434085 O
atom_frac 0.6497006509814935 0.9085924396758357 0.8779083755494523 O
atom_frac 0.5639072628213597 0.4085267351414786 0.3778254455015855 O
atom_frac 0.3503022146294228 0.0914117008783535 0.1220849730099758 O
atom_frac 0.6140739764053722 0.5474089895698384 0.5123051276746224 O
atom_frac 0.6744123402308730 0.9522405326181200 0.9877678854373143 O
atom_frac 0.3858948590268128 0.4525898474322574 0.4877003413979040 O
atom_frac 0.3255969629063030 0.0477495431479227 0.0122296209959671 O
atom_frac 0.1600921100835180 0.4687184576487766 0.6575269781654284 O
atom_frac 0.2865917015158598 0.0312099179257999 0.8424400179071299 O
atom_frac 0.8398807390087553 0.5313050499704133 0.3424758475054971 O
atom_frac 0.7134147476178329 0.9687850670854630 0.1575577404672259 O
atom_frac 0.0236946619377958 0.5803662253997928 0.5733272534711347 O
atom_frac 0.1773833891641062 0.9196074996076077 0.9265763349102869 O
atom_frac 0.9762866734357940 0.4196484558574056 0.4266696530645788 O
atom_frac 0.8226207666372785 0.0803890103780489 0.0734250041998549 O
