#=======================================================
# FHI-aims file: ./geometry.in
# Created using the Atomic Simulation Environment (ASE)
# Wed Feb  9 14:46:22 2022
#=======================================================
lattice_vector -4.6067205500000004 10.5546406600000005 -4.4538759399999996 
lattice_vector 11.2128078900000006 -1.3590890200000001 -5.0034713899999996 
lattice_vector -6.6454474200000000 -10.7011804999999995 -3.5264135500000000 
atom_frac 1.0000362500000002 0.5000225500000001 0.5000306600000001 Mn
    initial_moment         1.000000
atom_frac 0.5000104000000000 0.5000124700000000 1.0000367699999999 Mn
    initial_moment         1.000000
atom_frac 0.8111971100000002 0.5609731200000000 0.2499174100000000 Mn
    initial_moment        -3.000000
atom_frac 0.1889022100000000 0.4389921299999999 0.7501275400000000 Mn
    initial_moment        -3.000000
atom_frac 0.2190523600000000 0.8779905800000000 0.7420153700000000 H
atom_frac 0.6357738200000000 0.4777951300000000 0.7577703000000000 H
atom_frac 0.7801523200000001 0.1219897100000000 0.2579642800000000 H
atom_frac 0.3642477700000001 0.5226995100000000 0.2422059600000000 H
atom_frac 0.3208407500000000 0.1124370500000000 0.8557242100000000 H
atom_frac 0.7564970800000000 0.4662184200000000 0.6440781300000000 H
atom_frac 0.6783592400000000 0.8875539099999999 0.1442472400000001 H
atom_frac 0.2435529200000001 0.5342779600000002 0.3559324500000001 H
atom_frac 0.1840717800000000 0.1377559400000000 0.5075619800000000 H
atom_frac 0.1304236500000000 0.6757919800000001 0.9924021100000000 H
atom_frac 0.8171956100000000 0.8623813800000001 0.4925210100000000 H
atom_frac 0.8695791200000001 0.3235871100000000 0.0076828100000000 H
atom_frac 0.0808854500000000 0.9022873399999999 0.3930175700000000 H
atom_frac 1.0095270800000000 0.6867952600000000 0.1069390700000000 H
atom_frac 0.9203225600000000 0.0978294399999999 0.6070677500000000 H
atom_frac -0.0095456700000000 0.3125846600000000 0.8931166500000000 H
atom_frac 0.1502639800000000 0.3041381600000000 0.4610763300000000 H
atom_frac 0.3434581500000002 0.6894748200000003 1.0393468800000003 H
atom_frac 0.8497917400000000 0.6959111399999999 0.5389181999999999 H
atom_frac 0.6563531500000001 0.3104640400000000 -0.0393622100000000 H
atom_frac 0.3199563599999999 0.2958886500000000 0.4085109800000000 H
atom_frac 0.3874268600000000 0.9115897100000000 0.0916055900000000 H
atom_frac 0.6800328200000001 0.7042038800000001 0.5913786200000001 H
atom_frac 0.6120157600000000 0.0882396400000000 0.9080939300000000 H
atom_frac 0.5280228400000000 0.7043614600000000 0.6104635700000000 H
atom_frac 0.5937403299999999 0.9174887600000000 0.8895706900000000 H
atom_frac 0.4719549200000001 0.2957258400000001 0.3894564800000000 H
atom_frac 0.4057958400000000 0.0824440100000000 0.1102117900000000 H
atom_frac 0.3457948300000000 0.6914025600000001 0.6517489500000000 H
atom_frac 0.5398149899999999 0.6941398300000000 0.8485495599999999 H
atom_frac 0.6542174400000000 0.3086456699999999 0.3482446700000000 H
atom_frac 0.4600334600000000 0.3058923600000000 0.1514667200000000 H
atom_frac 0.0777502300000000 0.7385449100000000 0.4909455600000001 C
atom_frac 0.7476851100000000 0.5864322499999999 0.0089662499999999 C
atom_frac 0.9223892500000000 0.2614964299999999 0.5090849700000000 C
atom_frac 0.2523367900000000 0.4135224900000002 0.9910727900000001 C
atom_frac 0.1459635200000001 0.8775152700000000 0.5611507700000001 C
atom_frac 0.8163977300000002 0.5846307800000001 0.9387443500000001 C
atom_frac 0.8542394499999999 0.1225356000000000 0.4388926499999999 C
atom_frac 0.1836127900000000 0.4153102900000000 0.0612866400000000 C
atom_frac 0.2137034000000001 0.9360571200000002 0.6914086800000000 C
atom_frac 0.7445574099999998 0.5227479099999998 0.8084411199999999 C
atom_frac 0.7859417599999999 0.0639540800000000 0.3086031800000000 C
atom_frac 0.2554654099999999 0.4775072800000000 0.1915736299999999 C
atom_frac 0.2707829500000002 0.0657822300000002 0.7543325900000001 C
atom_frac 0.8113533100000000 0.5170966400000000 0.7455206200000000 C
atom_frac 0.7288657800000001 0.9342321700000001 0.2456768700000001 C
atom_frac 0.1886845600000000 0.4831617000000001 0.2545093600000000 C
atom_frac 0.2610153100000001 0.1387000600000001 0.6883579500000000 C
atom_frac 0.9503739800000000 0.5728841099999999 0.8115426900000000 C
atom_frac 0.7391945100000000 0.8613511599999999 0.3116786400000000 C
atom_frac 0.0496580000000000 0.4270614500000000 0.1885021800000000 C
atom_frac 0.1929038100000001 0.0797533300000000 0.5580244300000000 C
atom_frac 0.0218739000000002 0.6345049500000001 0.9419158000000002 C
atom_frac 0.8078913299999999 0.9203432900000000 0.4420416400000000 C
atom_frac 0.9781418300000000 0.3651253400000000 0.0581449300000000 C
atom_frac 0.1361901000000000 0.9503428800000000 0.4948403100000001 C
atom_frac 0.9556632599999999 0.6407681599999999 0.0050987900000000 C
atom_frac 0.8645928899999999 0.0497485500000000 0.5052317200000001 C
atom_frac 0.0443416200000001 0.3588590900000000 0.9949502600000000 C
atom_frac 0.3154052000000000 0.2769766100000000 0.7544213400000001 C
atom_frac 0.0226232600000001 0.5613321000000001 0.7455194700000001 C
atom_frac 0.6847348599999999 0.7230679800000002 0.2456129700000000 C
atom_frac 0.9773989699999999 0.4386181800000000 0.2545119700000000 C
atom_frac 0.2394631000000001 0.3872701300000000 0.4935604700000000 C
atom_frac 0.3939284400000001 0.7460870400000000 1.0067340700000000 C
atom_frac 0.7605660200000001 0.6127943900000001 0.5064078800000001 C
atom_frac 0.6058132600000000 0.2538424400000001 -0.0068010100000000 C
atom_frac 0.3350948600000001 0.3865569500000001 0.4672126300000001 C
atom_frac 0.4193686300000000 0.8679797399999999 0.0329125700000000 C
atom_frac 0.6649035900000000 0.6135273900000000 0.5327029100000000 C
atom_frac 0.5801839600000002 0.1318936400000000 0.9668761500000000 C
atom_frac 0.4489312500000000 0.4996350200000000 0.5119146600000000 C
atom_frac 0.4875212699999999 0.9369780100000000 0.9880461800000000 C
atom_frac 0.5510584300000001 0.5004539700000000 0.4879954500000001 C
atom_frac 0.5119977900000000 0.0629033100000000 0.0117239000000000 C
atom_frac 0.4500340099999999 0.6121961399999998 0.5789145299999999 C
atom_frac 0.5331941800000000 0.8711010700000000 0.9211642600000000 C
atom_frac 0.5499596600000000 0.3878849900000000 0.4210156000000000 C
atom_frac 0.4663975100000000 0.1288250800000000 0.0786585600000000 C
atom_frac 0.3519870800000000 0.6091415500000001 0.6030422100000000 C
atom_frac 0.5061998000000001 0.7490171200000001 0.8971983600000000 C
atom_frac 0.6480311399999999 0.3909201400000000 0.3969322000000000 C
atom_frac 0.4935664700000000 0.2509653900000000 0.1027574900000000 C
atom_frac 0.2509417500000000 0.4973523600000000 0.5646596699999999 N
atom_frac 0.4329180400000000 0.6864309200000001 0.9356692700000000 N
atom_frac 0.7491086600000001 0.5027032800000000 0.4353483600000000 N
atom_frac 0.5669571999999998 0.3135548300000000 0.0643711599999999 N
atom_frac 0.0964203400000001 0.6767759700000001 0.5564546900000001 O
atom_frac 0.6202932199999999 0.5397028799999998 0.9435331399999999 O
atom_frac 0.9036594000000001 0.3232730900000000 0.4435890900000000 O
atom_frac 0.3797381000000000 0.4603408200000000 0.0565476700000000 O
atom_frac 1.0059354100000000 0.6907125600000000 0.3738003700000000 O
atom_frac 0.8171842400000000 0.6315386800000000 0.1260799300000000 O
atom_frac -0.0057731000000000 0.3093382299999999 0.6262319800000000 O
atom_frac 0.1828587600000000 0.3683534700000000 0.8739548600000000 O
atom_frac 0.4053575100000000 0.3302168300000001 0.8699114100000001 O
atom_frac 0.9603453000000000 0.5358477200000001 0.6300734400000001 O
atom_frac 0.5946703200000000 0.6698185599999998 0.1301560300000000 O
atom_frac 0.0397095000000000 0.4642025499999999 0.3699766700000000 O
atom_frac 0.2667682599999999 0.3322347599999999 0.6925342899999999 O
atom_frac 0.1398610800000001 0.5746066600000002 0.8074186600000000 O
atom_frac 0.7333928800000000 0.6677976500000001 0.3074697800000001 O
atom_frac 0.8601293000000001 0.4252710100000000 0.1925849000000000 O
atom_frac 0.1644779199999999 0.4956987900000000 0.6031313600000000 O
atom_frac 0.3926885600000001 0.5614689400000001 0.8971028500000000 O
atom_frac 0.8356030700000000 0.5043488300000001 0.3969153500000001 O
atom_frac 0.6072829000000000 0.4385305500000000 0.1029762200000000 O
