#=======================================================
# FHI-aims file: ./geometry.in
# Created using the Atomic Simulation Environment (ASE)
# Fri Jan 14 15:04:04 2022
#=======================================================
lattice_vector -15.0804842000000008 -0.1908280370000000 0.1477176920000000 
lattice_vector -0.2091472500000000 -14.9500520960000003 0.2584858110000000 
lattice_vector 0.1964949050000000 0.1839380060000000 19.6031956739999984 
atom_frac 0.5710184987242285 0.5680879986534887 0.4298813274309552 Zn
atom_frac 0.4330573430815222 0.5783326362717746 0.5653128792138702 Zn
atom_frac 0.5799577226678068 0.4350617034555881 0.5596849048978783 Zn
atom_frac 0.4255272375218909 0.4316744066753413 0.4430155436856182 Zn
atom_frac 0.1478350039666694 0.4769148774568349 0.4121678199772417 H
atom_frac 0.4036589839160669 0.3398386540450885 0.7401680418711152 H
atom_frac 0.4829843430283560 0.2164999078210456 0.4058533437929910 H
atom_frac 0.6158388161765773 0.4047394143023622 0.9853572160839122 H
atom_frac 0.4158526812679071 0.3692034168265578 0.0494550670824836 H
atom_frac 0.3439508524590167 0.3668878285840264 0.8657678757196551 H
atom_frac 0.4280172588672998 0.3644874536586967 0.2831068737780598 H
atom_frac 0.4715028702346373 0.6669060272702653 0.0507552419240227 H
atom_frac 0.8366903961264995 0.4865575498577355 0.3650398599236340 H
atom_frac 0.4711535058340672 0.8577502229056221 0.5932423581815058 H
atom_frac 0.6338790264693870 0.5578337744996062 0.7737709192851697 H
atom_frac 0.3876961810197984 0.5479541949449639 0.9932534651121188 H
atom_frac 0.4835278831065963 0.7194972586770870 0.2009491008597664 H
atom_frac 0.6445809088422435 0.5507443561160837 0.9530978879670543 H
atom_frac 0.0429682988139604 0.5381158355157042 0.6847923031100223 H
atom_frac 0.7841486916061343 0.4723254589106317 0.5885013916934838 H
atom_frac 0.2664986129758375 0.5034797697139906 0.5109014484131720 C
atom_frac 0.4442538761274974 0.5171896632579231 0.0202160739401265 C
atom_frac 0.5103435647139635 0.4808699731284419 0.9820646328107330 C
atom_frac 0.7375915828799650 0.4879261350513388 0.4780104655813702 C
atom_frac 0.5129515222025275 0.4835707699208242 0.7638102507058377 C
atom_frac 0.1679608061092779 0.5019876325442922 0.5181794186004893 C
atom_frac 0.8351996766276814 0.4878379889670582 0.4748494678110404 C
atom_frac 0.9690807980588191 0.4836360026844416 0.4059586359851224 C
atom_frac 0.8775576053148627 0.4870068758328613 0.4108490769882849 C
atom_frac 0.8860515478871563 0.4890979916784203 0.5356366275138599 C
atom_frac 0.9805349793479224 0.4974704603168404 0.5314989838295006 C
atom_frac 0.4458131986927611 0.5154931999790120 0.0954878916934518 C
atom_frac 0.0227432267774290 0.4893711755005226 0.4662691262106549 C
atom_frac 0.1162323598218720 0.4876997041940072 0.4614944992110281 C
atom_frac 0.1276325389166928 0.5179627800009570 0.5825137174861794 C
atom_frac 0.5174265668212144 0.7340096892811230 0.5022485117063055 C
atom_frac 0.0348502640296431 0.5134204910101871 0.5897829251770190 C
atom_frac 0.5156382922369289 0.8336708980040226 0.4916417284029322 C
atom_frac 0.4872458476629332 0.1709261550074714 0.5229756082956314 C
atom_frac 0.4693477714586863 0.0388299540759220 0.5955514719351953 C
atom_frac 0.4733071596745901 0.1318890413095914 0.5882868744842611 C
atom_frac 0.4951063456697113 0.1166708998119503 0.4649729775056244 C
atom_frac 0.4353633070966013 0.4346046176411845 0.1309745641851734 C
atom_frac 0.5051981438516009 0.0214471694442224 0.4727259606703313 C
atom_frac 0.4880019896706144 0.9825927121275910 0.5380437645840885 C
atom_frac 0.4895620248125142 0.8884135188079580 0.5448061079580171 C
atom_frac 0.5413132399045607 0.8717316475958152 0.4280316503078084 C
atom_frac 0.4980099386971801 0.2686694614423144 0.5141226994432273 C
atom_frac 0.5329703357337153 0.9651481666289214 0.4179182762727081 C
atom_frac 0.5134547272329115 0.4937787686787799 0.6879484891923440 C
atom_frac 0.4705787764539123 0.5083323279536813 0.3127923935035781 C
atom_frac 0.4562263255812340 0.5127506173356264 0.2393154982998453 C
atom_frac 0.4641776442341481 0.5946615861944125 0.2027302707899139 C
atom_frac 0.4385566369398148 0.4326961398030774 0.2026700992652835 C
atom_frac 0.4582118327177512 0.5945498744664871 0.1316816575251636 C
atom_frac 0.1743666608002742 0.5371231150373106 0.6433830720791889 C
atom_frac 0.0109777801304389 0.4760910102558781 0.3410946729276674 C
atom_frac 0.5757220060719632 0.8194441640402982 0.3730433091793017 C
atom_frac 0.4487384640662669 0.9992425889268470 0.6595191709451458 C
atom_frac 0.5584203395675259 0.9992898432993440 0.3528225349440035 C
atom_frac 0.4561763079585007 0.1886081557189243 0.6453423394293836 C
atom_frac 0.4458633137460879 0.4359293782304049 0.8694784679460101 C
atom_frac 0.4468927869756385 0.4367732952894129 0.7976774088022864 C
atom_frac 0.5812330507114966 0.5232827595071112 0.8002700522735822 C
atom_frac 0.5808871463932873 0.5207190296960178 0.8712510192091116 C
atom_frac 0.5117949452333619 0.4784727061905940 0.9070812087029196 C
atom_frac 0.1993956604829989 0.5530951167473360 0.6984477796947033 N
atom_frac 0.0469541378955753 0.4694921155428843 0.2884762814654920 N
atom_frac 0.6062696533772609 0.7834498430525157 0.3254858383358794 N
atom_frac 0.4319271742518255 0.9647300026086538 0.7114767372385841 N
atom_frac 0.5827434504546289 0.0206967569076681 0.2986951087899641 N
atom_frac 0.4391706071403688 0.2360639607489929 0.6906923632423343 N
atom_frac 0.5012085152605934 0.5038772730599133 0.4997668580300711 O
atom_frac 0.4493278320685691 0.5377774500507753 0.6602509460510078 O
atom_frac 0.4450311546889126 0.4363346753318138 0.3450648973275535 O
atom_frac 0.5805095936502056 0.4594487006636213 0.6569034817990271 O
atom_frac 0.5083320351445906 0.5717825712754487 0.3437746985449479 O
atom_frac 0.4756650077736779 0.6730739023060437 0.2357322696888176 O
atom_frac 0.6477309263146580 0.5631722148195735 0.9041044608535032 O
atom_frac 0.9965487717790609 0.5263451951070761 0.6509667894489937 O
atom_frac 0.8485895405200952 0.4837796874849756 0.5969739996155567 O
atom_frac 0.3797012228303558 0.3915892558005254 0.7661679960308588 O
atom_frac 0.4969786581771132 0.1507629012907046 0.4021501147023656 O
atom_frac 0.5741365960621961 0.6899893733442041 0.4673772356686996 O
atom_frac 0.5870026607433588 0.4494592350776330 0.0144915396239895 O
atom_frac 0.4210916541580688 0.3560015607183828 0.0983373319659577 O
atom_frac 0.3806550781798849 0.3915033282086640 0.9022866857652901 O
atom_frac 0.4272587430477729 0.3525839429163680 0.2332919822978354 O
atom_frac 0.4670780599962185 0.6764277776710795 0.0998820476447193 O
atom_frac 0.4670696800628420 0.3033526262030788 0.4582932979223601 O
atom_frac 0.3064147174099717 0.5588617667475759 0.5480381600426369 O
atom_frac 0.7034863487833150 0.4611024637731446 0.5353476213993389 O
atom_frac 0.3009288850144003 0.4491450281357459 0.4677512797036840 O
atom_frac 0.6923482477571171 0.5140573750701378 0.4265784781394900 O
atom_frac 0.4621416126492051 0.7040355670190976 0.5453901741780099 O
atom_frac 0.5395213322255401 0.3093911595895590 0.5599699208111986 O
