#=======================================================
# FHI-aims file: ./geometry.in
# Created using the Atomic Simulation Environment (ASE)
# Wed Feb  9 14:46:25 2022
#=======================================================
lattice_vector 6.4133146400000003 0.0010100400000000 0.0114424500000000 
lattice_vector 0.0040210400000000 6.1125460399999998 -2.9242483600000000 
lattice_vector -0.0146799600000000 0.1666776700000000 8.1780115200000001 
atom_frac 0.0000025600000000 0.0076059200000000 0.0000162600000000 Fe
    initial_moment         2.000000
atom_frac 0.5000020100000000 0.0076038300000000 1.0000145199999999 Fe
    initial_moment        -4.000000
atom_frac -0.0000457500000000 0.5308837500000001 0.7199184400000002 H
atom_frac 0.4999500200000000 0.5308821700000000 0.7199151000000000 H
atom_frac 0.4999638100000000 0.1705510000000000 0.7175506200000000 H
atom_frac 0.0000557800000000 0.8102876400000001 0.2799896100000000 H
atom_frac 1.0000409400000001 0.4523940500000000 0.2825186900000001 H
atom_frac 0.5000449500000000 0.4523898100000001 0.2825138700000001 H
atom_frac 0.5000576200000000 0.8102855100000000 0.2799848700000000 H
atom_frac 0.9999634300000000 0.1705550200000000 0.7175536100000000 H
atom_frac -0.0000228700000000 0.5169538300000001 0.8482259700000000 C
atom_frac 0.4999755100000001 0.5169509500000001 0.8482221800000002 C
atom_frac 0.4999826200000000 0.3109998100000000 0.8466893400000000 C
atom_frac 0.0000278700000000 0.6683475900000000 0.1517227800000000 C
atom_frac 1.0000268600000000 0.4639704900000001 0.1533440100000001 C
atom_frac 0.5000278800000000 0.4639685400000000 0.1533401400000000 C
atom_frac 0.5000286000000000 0.6683446400000002 0.1517186400000000 C
atom_frac 0.9999833700000001 0.3110024200000000 0.8466931700000001 C
atom_frac 0.0000010600000000 0.6965564600000000 -0.0000379100000000 N
atom_frac 0.5000005100000000 0.6965552100000001 0.9999580100000000 N
atom_frac 0.5000054100000000 0.2808145300000000 0.0000288800000000 N
atom_frac 1.0000056100000001 0.2808175300000000 1.0000324700000001 N
atom_frac 0.7500053600000000 0.0717554100000000 0.1550710400000000 N
atom_frac 0.2500078100000000 0.0717524100000000 0.1550711300000000 N
atom_frac 0.7499989400000000 0.9171393900000000 0.8449906100000000 N
atom_frac 0.2499959200000000 0.9171370100000000 0.8449901300000000 N
atom_frac 0.7500191100000001 0.1740083400000000 0.3173277600000000 N
atom_frac 0.2500127000000000 0.1740173800000000 0.3173266900000001 N
atom_frac 0.7499906300000001 0.8571003100000001 0.6826862200000000 N
atom_frac 0.2499829500000000 0.8571123500000000 0.6826869900000000 N
atom_frac 0.7499934200000000 0.2708974300000000 0.4715576100000001 N
atom_frac 0.2500097600000000 0.2708953500000000 0.4715577300000000 N
atom_frac 0.7499381600000001 0.7997350500000001 0.5284116500000001 N
atom_frac 0.2499627900000000 0.7997386700000002 0.5284116300000001 N
