#=======================================================
# FHI-aims file: ./geometry.in
# Created using the Atomic Simulation Environment (ASE)
# Fri Jan 14 15:06:22 2022
#=======================================================
lattice_vector 6.2582738410000003 0.6002824329999999 -0.0000123080000000 
lattice_vector -0.4735810010000000 7.1884763869999997 -0.0000070680000000 
lattice_vector -0.0000583290000000 -0.0000227140000000 20.6213564389999995 
atom_frac 0.9999945671367383 0.5000021351869107 0.9999994861127705 Cu
atom_frac 0.0000030510139126 0.4999987941923081 0.5000021974562686 Cu
atom_frac 0.6492220832909296 0.7435714864370199 0.9986798544076478 Cu
atom_frac 0.3507780391045756 0.2564417455172502 0.4986813627088936 Cu
atom_frac 0.3507689880903158 0.2564256275143038 0.0013207729453484 Cu
atom_frac 0.6492292246013917 0.7435581896174241 0.5013182947864294 Cu
atom_frac 0.0314598365414440 0.5134929920624031 0.7500022640278914 Cu
atom_frac 0.9685430820507718 0.4865128703792790 0.2499978784010182 Cu
atom_frac 0.0303003577369836 0.9865982554903706 0.7500004857567575 Cu
atom_frac 0.9697099770621092 0.0134000320735765 0.2499991717398302 Cu
atom_frac 0.7460139787252230 0.0453424896708228 0.1101755604264696 H
atom_frac 0.2539844863023220 0.9546600788099937 0.6101751798335471 H
atom_frac 0.2539885214374564 0.9546578432523700 0.8898250669344491 H
atom_frac 0.7460350618176291 0.0453332660521042 0.3898288420742163 H
atom_frac 0.7244019080070457 0.4611223168151993 0.1156006483958905 H
atom_frac 0.2755982479895138 0.5388801447593959 0.6156053428599648 H
atom_frac 0.2755812241338448 0.5388754601166071 0.8844014337550449 H
atom_frac 0.7244009718307113 0.4611190709666672 0.3843918899595522 H
atom_frac 0.7387469908366812 0.4610814660857442 0.8837048331581770 H
atom_frac 0.2612248093030516 0.5389236665540691 0.3837064282203499 H
atom_frac 0.2612295805916816 0.5389140764449248 0.1162875503050387 H
atom_frac 0.7387425489564664 0.4610768187163216 0.6162975936587074 H
atom_frac 0.7501359509873852 0.0441410305268377 0.8888517881392559 H
atom_frac 0.2498834778894334 0.9558587662402616 0.3888570499858162 H
atom_frac 0.2498678231774888 0.9558550226554771 0.1111464145501984 H
atom_frac 0.7501473943481399 0.0441364152000290 0.6111411527195115 H
atom_frac 0.7647084571738746 0.9013191996118479 0.1248907068831357 C
atom_frac 0.2352828712520818 0.0986910134030268 0.6248945665397088 C
atom_frac 0.2352844112476262 0.0986805464970004 0.8751070108669197 C
atom_frac 0.7647246016801644 0.9013116864937628 0.3751060608249902 C
atom_frac 0.7545540222705611 0.6045602900767406 0.1274127416329378 C
atom_frac 0.2454430777928635 0.3954411102064270 0.6274134223014586 C
atom_frac 0.2454405386655907 0.3954407058303813 0.8725907953283851 C
atom_frac 0.7545661921796524 0.6045642218478805 0.3725842954603067 C
atom_frac 0.7653261815847615 0.6043739570550529 0.8708958474421635 C
atom_frac 0.2346597704372115 0.3956313039733174 0.3708944029525442 C
atom_frac 0.2346612956514562 0.3956178925651627 0.1291038100385791 C
atom_frac 0.7653231524589756 0.6043637081917906 0.6291047695924092 C
atom_frac 0.7696141158369868 0.9009967693852658 0.8732682495414468 C
atom_frac 0.2303869042052114 0.0990169861800112 0.3732699911484261 C
atom_frac 0.2303822421163986 0.0990068586736398 0.1267299531461816 C
atom_frac 0.7696256461051474 0.9009894630702744 0.6267306362205858 C
atom_frac 0.3521740851203107 0.7439870190953072 0.7500068988579542 Br
atom_frac 0.6478225867415973 0.2560207561239807 0.2500000326460139 Br
atom_frac 0.2147335116066742 0.7493144536735700 0.0005047165119976 Br
atom_frac 0.7852691166064217 0.2506856829691413 0.5005044875427771 Br
atom_frac 0.7852531100661012 0.2506872052083011 0.9994978505765033 Br
atom_frac 0.2147375194437231 0.7493059578849283 0.4994946850151720 Br
atom_frac 0.8567077686539334 0.8464683112982883 0.1801465649549385 N
atom_frac 0.1432916260645953 0.1535081905545538 0.6801503523843523 N
atom_frac 0.1432850138818367 0.1535091841366095 0.8198511527874430 N
atom_frac 0.8567090957760114 0.8464686419159193 0.3198526996382114 N
atom_frac 0.8503946241598896 0.6572515391520923 0.1815406820198717 N
atom_frac 0.1496057198142893 0.3427582790161595 0.6815460615084704 N
atom_frac 0.1495958008012650 0.3427581488023462 0.8184550959955245 N
atom_frac 0.8503960293750552 0.6572532455440122 0.3184555357241408 N
atom_frac 0.6994963044654340 0.7536919377644365 0.0898657632914208 N
atom_frac 0.3004942539183730 0.2463167270952055 0.5898693170564187 N
atom_frac 0.3004998442754782 0.2463089255357999 0.9101329243292825 N
atom_frac 0.6995209490417551 0.7536825450624247 0.4101303404434162 N
atom_frac 0.8665545405800612 0.6578766981297122 0.8179100810035607 N
atom_frac 0.1334386765557838 0.3421109279772239 0.3179060543274873 N
atom_frac 0.1334407713156054 0.3421131061369848 0.1820910312836119 N
atom_frac 0.8665551520837621 0.6578803912613579 0.6820936031568579 N
atom_frac 0.8686646250274707 0.8470215611709974 0.8191569127977164 N
atom_frac 0.1313486974370335 0.1529991718023850 0.3191600279790876 N
atom_frac 0.1313409274871091 0.1529979924709224 0.1808417748350024 N
atom_frac 0.8686680746419170 0.8470208360515910 0.6808386596604876 N
atom_frac 0.7029863180585278 0.7528341181756771 0.9077751033866974 N
atom_frac 0.2970037195929435 0.2471738169853878 0.4077789658221960 N
atom_frac 0.2970101445080005 0.2471708922642861 0.0922235842356116 N
atom_frac 0.7029971927281126 0.7528266485355103 0.5922226314061234 N
