#=======================================================
# FHI-aims file: ./geometry.in
# Created using the Atomic Simulation Environment (ASE)
# Fri Jan 14 15:06:22 2022
#=======================================================
lattice_vector 6.6195052199999997 -0.0001834210000000 -2.9662113680000002 
lattice_vector -1.3585329460000000 6.4549687320000002 -3.0322086300000000 
lattice_vector 0.0031796690000000 0.0865334830000000 8.8779539100000004 
atom_frac 0.7500232192258166 0.5000189318429804 0.9999713007554052 Fe
atom_frac 0.2499757343303131 0.4999700939417265 0.0000523204435936 Fe
atom_frac 0.2433826762142104 0.2103082252672976 0.4867667618446064 H
atom_frac 0.2562672987155992 0.7231142044357100 0.5131819957671342 H
atom_frac 0.7438018343459659 0.2768781358233383 0.4868256552458378 H
atom_frac 0.7565826668406359 0.7897156429446853 0.5132000842970471 H
atom_frac 0.8584344066968156 0.9634481673167556 0.3129385184341373 H
atom_frac 0.4549849657560400 0.9630633786066909 0.3138606816154096 H
atom_frac 0.0449324117481353 0.6490403696278474 0.6863580169817425 H
atom_frac 0.3590162381658502 0.3505967883273797 0.3136883433269234 H
atom_frac 0.1412516251064346 0.0368696583907280 0.6864789718757081 H
atom_frac 0.5452372436078149 0.0366602375461724 0.6866627671996854 H
atom_frac 0.9548281627320633 0.3501169874432080 0.3130687464469305 H
atom_frac 0.6413106480136648 0.6502038675325180 0.6869247998775735 H
atom_frac 0.1886585278979993 0.0533852558892249 0.3772464171018940 C
atom_frac 0.3111108862183727 0.6758616802803630 0.6227768608726552 C
atom_frac 0.6889194113509375 0.3241181191847105 0.3772416912351703 C
atom_frac 0.8113189094642976 0.9466386489286832 0.6227177240548942 C
atom_frac 0.9932702999109393 0.9290477630706916 0.2906149689571579 C
atom_frac 0.2975979295226380 0.9288302189372287 0.2910383849142520 C
atom_frac 0.2023083697889305 0.6376334787612167 0.7091236547528086 C
atom_frac 0.4936421093920201 0.3621787008658827 0.2909666174387483 C
atom_frac 0.0065769808296068 0.0711216760352826 0.7091244828458586 C
atom_frac 0.7024925532879108 0.0710458735826265 0.7092047753716102 C
atom_frac 0.7976029458941482 0.3619794503978540 0.2906419840425301 C
atom_frac 0.5065180494837378 0.6381694628396204 0.7093089931462162 C
atom_frac 0.9865411867272653 0.7423091806849625 0.1625775490055190 N
atom_frac 0.1761753995599520 0.7421546935555836 0.1627921651973168 N
atom_frac 0.3238389737897336 0.5793133744199465 0.8373600419882269 N
atom_frac 0.4866672236659895 0.4205444700473322 0.1626868574999563 N
atom_frac 0.0133609914037365 0.2578041917084661 0.8372996407612663 N
atom_frac 0.8238367553349875 0.2577589736937754 0.8373058712517079 N
atom_frac 0.6761215225851628 0.4204511663063997 0.1625368881205916 N
atom_frac 0.5134141090675826 0.5796474818103546 0.8374538704392764 N
