#=======================================================
# FHI-aims file: ./geometry.in
# Created using the Atomic Simulation Environment (ASE)
# Wed Feb  9 14:46:32 2022
#=======================================================
lattice_vector 9.3908662899999999 -0.1341540400000000 2.8161010200000001 
lattice_vector 4.8388303099999996 -11.5981926000000009 0.4235059000000000 
lattice_vector 9.6940376100000005 -0.3929322500000000 -15.2764004100000008 
atom_frac 0.4343638800000002 0.9047506100000001 0.9230853599999997 Cd
atom_frac 0.2620796200000002 0.5952458100000000 0.5769073499999999 Cd
atom_frac 0.5656354900000000 0.0952483300000000 0.0769147599999999 Cd
atom_frac 0.7379216499999999 0.4047534500000001 0.4230928199999999 Cd
atom_frac 0.7042095099999999 0.7867036300000001 0.7800494499999999 H
atom_frac 0.2709833600000001 0.7130554400000000 0.7197862199999999 H
atom_frac 0.2957908100000000 0.2132961300000000 0.2199503600000000 H
atom_frac 0.7290170000000000 0.2869445299999999 0.2802135199999999 H
atom_frac 0.7934328600000002 0.6176981999999999 0.7023874999999998 H
atom_frac 0.1135642500000000 0.8820461400000000 0.7975358500000000 H
atom_frac 0.2065673800000001 0.3823014300000000 0.2976124700000000 H
atom_frac 0.8864361600000000 0.1179537800000000 0.2024640099999999 H
atom_frac 0.3822978400000002 0.5535845600000000 0.8237909899999999 H
atom_frac 0.7590494300000001 0.9467938300000001 0.6763477499999999 H
atom_frac 0.6177025000000002 0.4464151200000000 0.1762091099999999 H
atom_frac 0.2409504700000000 0.0532056400000000 0.3236524600000000 H
atom_frac 0.3011405600000002 0.7366716000000000 0.8853595599999998 H
atom_frac 0.9225929699999998 0.7637271200000001 0.6146496699999999 H
atom_frac 0.6988597200000000 0.2633284300000000 0.1146402700000000 H
atom_frac 0.0774070100000001 0.2362724599999999 0.3853504099999999 H
atom_frac 0.4091045600000003 0.2725496900000000 0.8112032499999999 H
atom_frac 0.4924897300000001 0.2281240800000000 0.6887708199999999 H
atom_frac 0.5908949200000002 0.7274505900000001 0.1887966900000000 H
atom_frac 0.5075104499999999 0.7718760700000001 0.3112290799999999 H
atom_frac 0.3852413400000000 0.1751020600000000 0.9453705100000001 H
atom_frac 0.5055680600000000 0.3253689600000000 0.5545560299999999 H
atom_frac 0.6147583499999999 0.8248977199999999 0.0546293000000000 H
atom_frac 0.4944326600000001 0.6746309900000000 0.4454437900000000 H
atom_frac 0.6789186400000001 0.3040674700000000 0.9932774400000000 H
atom_frac 0.9764364100000001 0.1956525400000000 0.5068635699999998 H
atom_frac 0.3210813200000001 0.6959317000000000 0.0067226000000000 H
atom_frac 0.0235643800000001 0.8043469400000000 0.4931366099999999 H
atom_frac 0.7128605700000000 0.4090858900000000 0.8635826000000000 H
atom_frac 0.9855113600000002 0.0907515200000000 0.6366226999999999 H
atom_frac 0.2871391800000002 0.5909137599999998 0.1364175699999999 H
atom_frac 0.0144888700000001 0.9092481699999999 0.3633775800000000 H
atom_frac 0.0533421000000003 0.3079136400000000 0.6322697199999998 H
atom_frac -0.0071872599999998 0.1920488400000000 0.8678685999999999 H
atom_frac 0.9466578100000003 0.6920858500000001 0.3677297799999999 H
atom_frac 1.0071893000000001 0.8079503499999999 0.1321304000000000 H
atom_frac 0.9435733000000004 0.3879523000000001 0.7115749099999998 H
atom_frac 0.0425495800000002 0.1120951900000000 0.7885248299999998 H
atom_frac 0.0564290000000001 0.6120480500000000 0.2884244200000000 H
atom_frac 0.9574478100000000 0.8879051500000001 0.2114738899999999 H
atom_frac 0.8817095200000002 0.4574732799999999 0.5447783700000000 H
atom_frac 0.8837591200000000 0.0424264500000000 0.9553258799999998 H
atom_frac 0.1182902500000000 0.5425264900000000 0.4552214999999999 H
atom_frac 0.1162423800000001 0.9575731999999999 0.0446737600000000 H
atom_frac 0.6352768499999999 0.7334635200000001 0.7863801900000000 C
atom_frac 0.1549985600000000 0.7664280700000000 0.7135304200000000 C
atom_frac 0.3647235200000000 0.2665361900000001 0.2136196900000000 C
atom_frac 0.8450016800000000 0.2335717900000000 0.2864694400000000 C
atom_frac 0.6858826100000002 0.6384847499999999 0.7449995299999997 C
atom_frac 0.0692540700000002 0.8613827799999998 0.7549624299999999 C
atom_frac 0.3141176800000000 0.3615149200000001 0.2550004399999999 C
atom_frac 0.9307461900000000 0.1386170500000000 0.2450374900000000 C
atom_frac 0.5976139500000002 0.5688573099999998 0.7603046099999999 C
atom_frac 0.9264800299999998 0.9311703700000001 0.7397433599999998 C
atom_frac 0.4023864200000000 0.4311422900000000 0.2396954300000000 C
atom_frac 0.0735200900000001 0.0688292600000000 0.2602566499999999 C
atom_frac 0.4573972000000002 0.6027084700000001 0.8127374399999998 C
atom_frac 0.8723698300000002 0.8975228000000000 0.6873281399999999 C
atom_frac 0.5426031500000001 0.3972912300000000 0.1872625500000000 C
atom_frac 0.1276302000000000 0.1024767800000000 0.3126719200000000 C
atom_frac 0.4134310600000000 0.7026349000000000 0.8476064900000000 C
atom_frac 0.9632151900000003 0.7976124999999999 0.6523917199999999 C
atom_frac 0.5865693300000000 0.2973648700000000 0.1523934300000000 C
atom_frac 0.0367848300000000 0.2023870900000000 0.3476083200000000 C
atom_frac 0.5668333400000001 0.3472254200000000 0.8240217100000000 C
atom_frac 0.7378841200000003 0.1530125200000000 0.6760584699999997 C
atom_frac 0.4331665400000000 0.6527743400000001 0.1759783100000000 C
atom_frac 0.2621160800000001 0.8469872699999998 0.3239415700000000 C
atom_frac 0.4706787700000001 0.2819352299999999 0.8500024499999999 C
atom_frac 0.6023754400000000 0.2185038900000001 0.6500176599999999 C
atom_frac 0.5293208600000001 0.7180647199999999 0.1499975400000000 C
atom_frac 0.3976248600000002 0.7814960700000000 0.3499823300000000 C
atom_frac 0.4559284900000001 0.2288906900000000 0.9246269599999998 C
atom_frac 0.6093235299999999 0.2714540900000000 0.5753652299999999 C
atom_frac 0.5440712400000001 0.7711090499999999 0.0753729800000000 C
atom_frac 0.3906770400000000 0.7285457900000000 0.4246347300000000 C
atom_frac 0.6185753000000001 0.3008221000000000 0.9514671499999999 C
atom_frac 0.8709196399999999 0.1991026000000000 0.5486392799999997 C
atom_frac 0.3814245500000001 0.6991772999999998 0.0485328800000000 C
atom_frac 0.1290810000000002 0.8008970299999999 0.4513608399999999 C
atom_frac 0.6369921900000003 0.3599095200000000 0.8789829299999999 C
atom_frac 0.8758363900000000 0.1400784800000000 0.6211530799999999 C
atom_frac 0.3630076800000001 0.6400900400000000 0.1210171600000000 C
atom_frac 0.1241639600000002 0.8599212099999999 0.3788470600000000 C
atom_frac 0.5835010900000001 0.5309682300000002 0.5934159799999998 C
atom_frac 0.7078390600000003 0.9689461800000000 0.9066599100000000 C
atom_frac 0.4164990800000001 0.4690321900000000 0.4065841900000000 C
atom_frac 0.2921607800000000 0.0310538600000000 0.0933402000000000 C
atom_frac 0.7044060700000001 0.4792706300000000 0.6401446400000000 C
atom_frac 0.8236442800000002 1.0206502399999999 0.8599544799999997 C
atom_frac 0.2955942300000000 0.5207290400000000 0.3598554400000000 C
atom_frac 0.1763558500000000 -0.0206505200000000 0.1400455400000000 C
atom_frac 0.8525964500000002 0.4450659500000000 0.6081033199999999 C
atom_frac 0.9054860300000003 0.0548615600000000 0.8920021799999998 C
atom_frac 0.1474037400000001 0.5549336000000000 0.3918965599999999 C
atom_frac 0.0945150199999999 0.9451377399999999 0.1079974999999999 C
atom_frac 0.9806993600000002 0.3962980300000001 0.6481301099999999 C
atom_frac 0.0246655200000001 0.1036858300000000 0.8519663199999999 C
atom_frac 0.0193017300000001 0.6037015000000000 0.3518691799999999 C
atom_frac 0.9753351600000000 0.8963133399999998 0.1480323699999999 C
atom_frac 0.0811289000000001 0.4696317999999999 0.6246390500000000 C
atom_frac 0.1751592300000001 0.0303553100000000 0.8754143799999999 C
atom_frac 0.9188755900000001 0.5303650000000000 0.3753562399999999 C
atom_frac 0.8248463500000003 0.9696400999999999 0.1245785299999999 C
atom_frac 0.5017158099999999 0.7657872900000000 0.8368228400000000 N
atom_frac 0.1040319600000001 0.7342921500000001 0.6631100299999998 N
atom_frac 0.4982846600000000 0.2342124000000000 0.1631770900000000 N
atom_frac 0.8959681500000003 0.2657075700000001 0.3368899599999999 N
atom_frac 0.6467349800000002 0.4689485400000001 0.7221991799999999 N
atom_frac 0.8376122300000003 0.0310763000000000 0.7778974499999999 N
atom_frac 0.3532654400000000 0.5310510200000000 0.2778009000000000 N
atom_frac 0.1623877899999999 0.9689233000000000 0.2221025899999999 N
atom_frac 0.5963035200000000 0.3819383500000000 0.7471456900000000 N
atom_frac 0.7251335700000002 0.1183129800000000 0.7529450599999998 N
atom_frac 0.4036964500000002 0.6180614399999999 0.2528543499999999 N
atom_frac 0.2748665600000001 0.8816867699999998 0.2470549899999999 N
atom_frac 0.5311853400000000 0.2351571300000000 0.9748479799999998 N
atom_frac 0.7412054100000001 0.2649352000000000 0.5251913199999999 N
atom_frac 0.4688144500000000 0.7648423299999999 0.0251520400000000 N
atom_frac 0.2587953100000002 0.7350644799999999 0.4748087599999999 N
atom_frac 0.4487865400000000 0.5703411400000000 0.6326790899999999 O
atom_frac 0.6518849800000001 0.9295995599999998 0.8673636499999998 O
atom_frac 0.5512137200000000 0.4296584800000000 0.3673212899999999 O
atom_frac 0.3481145800000000 0.0704004300000000 0.1326366400000000 O
atom_frac 0.6218930600000000 0.5328246100000000 0.5213666800000000 O
atom_frac 0.6760518799999999 0.9670114800000001 0.9787125999999998 O
atom_frac 0.3781066900000002 0.4671748099999999 0.4786335099999999 O
atom_frac 0.3239490000000000 0.0329878900000000 0.0212875200000000 O
atom_frac 0.2050056100000002 0.4324412600000000 0.6458033699999999 O
atom_frac 0.2829504100000000 0.0674994700000000 0.8541620399999998 O
atom_frac 0.7949905900000002 0.5675620300000001 0.3541993499999999 O
atom_frac 0.7170469100000001 0.9325055499999999 0.1458415899999999 O
atom_frac 0.0326823600000001 0.5663333100000000 0.5841985999999999 O
atom_frac 0.1832045100000000 0.9336930699999999 0.9159119400000000 O
atom_frac 0.9673137100000000 0.4336703200000001 0.4158040800000000 O
atom_frac 0.8167922800000001 0.0663129700000000 0.0840919400000000 O
