#=======================================================
# FHI-aims file: ./geometry.in
# Created using the Atomic Simulation Environment (ASE)
# Fri Jan 14 15:03:40 2022
#=======================================================
lattice_vector 6.4368843419999999 -0.0293673040000000 0.2560193500000000 
lattice_vector 2.9193274489999999 8.1906962350000008 2.2917094819999999 
lattice_vector 0.0787640070000000 0.0944637400000000 9.3691836990000006 
atom_frac 0.9992152945492587 0.9989307360376569 0.9971661150306872 Co
atom_frac 0.5008848357207255 0.9996774855673183 0.5005626496380841 Co
atom_frac 0.5682592453089369 0.8575059107900390 0.0507899328312574 H
atom_frac 0.4309080281766953 0.1425307085029957 0.9495587359988988 H
atom_frac 0.9206074245384954 0.6010069146499717 0.1114785955819215 H
atom_frac 0.0792515759429619 0.3990730911656186 0.8884990137287827 H
atom_frac 0.8775303478337119 0.4138711744193985 0.1162099912839948 H
atom_frac 0.1223491202015053 0.5861710082015892 0.8838777065591897 H
atom_frac 0.7689003904908702 0.1981819488375366 0.2740987105177197 H
atom_frac 0.2315915010034997 0.8015275442862589 0.7262318724574468 H
atom_frac 0.8377677157801314 0.5706990474790601 0.3771864176231289 H
atom_frac 0.1623466587665517 0.4293754281440699 0.6228207879577781 H
atom_frac 0.0675501132572051 0.4067036874960196 0.3465605191687118 H
atom_frac 0.9325146215640031 0.5933710237510610 0.6533049631528340 H
atom_frac 0.4879361935696807 0.7657090824944178 0.0728202317292244 C
atom_frac 0.5115050658484818 0.2341548134227693 0.9270284667670550 C
atom_frac 0.8292734639471743 0.5187104802555356 0.1641216855357114 C
atom_frac 0.1705888870488862 0.4813981083683247 0.8359192845468397 C
atom_frac 0.7303314442149187 0.2333747046365318 0.3766159473711284 C
atom_frac 0.2702052974989042 0.7663727089610860 0.6237222792546291 C
atom_frac 0.8882578408711909 0.4657790469167439 0.3296614353864554 C
atom_frac 0.1118009367681835 0.5343088519177570 0.6703290634864060 C
atom_frac 0.2409155137609459 0.1068797728258346 0.2240572546535802 N
atom_frac 0.7584477228597990 0.8950485591071597 0.7759877136365815 N
atom_frac 0.1965313939394021 0.1141146738178165 0.7064400371349178 N
atom_frac 0.8040513193211604 0.8852740073309564 0.2937882910104576 N
atom_frac 0.5955539828754297 0.6052751262894276 0.1282515050277339 N
atom_frac 0.4042188637849263 0.3947058953033746 0.8720248389664959 N
atom_frac 0.6276917383994770 0.1676189880733291 0.4898959068647172 N
atom_frac 0.3734138856037461 0.8319489945582818 0.5107214858929366 N
atom_frac 0.2756638671975153 0.7861311478749826 0.0589016640030096 N
atom_frac 0.7239428020793426 0.2132827214801054 0.9404271366941116 N
atom_frac 0.3852720170954881 0.1158010135853900 0.2927416854943202 N
atom_frac 0.6149400109587403 0.8837173478143117 0.7080894393627374 N
atom_frac 0.7797232248798948 0.3524379716951459 0.4131320774134082 N
atom_frac 0.2204040701835410 0.6476237431133853 0.5869269935373252 N
atom_frac 0.7087609759274898 0.3593939900547554 0.5502365015434165 N
atom_frac 0.2914629895850638 0.6408318943931519 0.4498032530366912 N
atom_frac 0.6168883428852752 0.2476833814253396 0.5958583450852329 N
atom_frac 0.3838748120951864 0.7522695842549467 0.4045120047409513 N
atom_frac 0.2202200388572209 0.1307359010592748 0.5765092112854973 N
atom_frac 0.7812751877330085 0.8671251651769655 0.4239205462021757 N
atom_frac 0.4477273319018449 0.5246642240777321 0.1483453849317157 N
atom_frac 0.5525029832464553 0.4749522197398407 0.8519265174332489 N
atom_frac 0.2565374156750053 0.6342914942111548 0.1064414636313488 N
atom_frac 0.7436119776329874 0.3649598368996295 0.8932815595189395 N
atom_frac 0.1692758505109708 0.1046165240677297 0.8336426819590695 N
atom_frac 0.8285068990549643 0.8963866842122032 0.1662010681519631 N
atom_frac 0.0956828978701267 0.1114792870322816 0.1484905443460534 N
atom_frac 0.9033253408233650 0.8923147381503329 0.8509007127170845 N
