#=======================================================
# FHI-aims file: ./geometry.in
# Created using the Atomic Simulation Environment (ASE)
# Fri Jan 14 15:06:22 2022
#=======================================================
lattice_vector 11.4252102089999994 -0.0008543270000000 0.0048134130000000 
lattice_vector -0.0037709470000000 13.7211425239999993 -6.4829087070000000 
lattice_vector 0.0074922490000000 0.0138093100000000 17.7736877640000017 
atom_frac 0.7864762374773947 0.6357466220877654 0.0001373759270109 Co
atom_frac 0.2135936707593730 0.3642681630447059 0.9998397275397226 Co
atom_frac 0.5009655936728450 0.3791531358927003 0.7584573325839801 Co
atom_frac 0.4989530094933201 0.6207532788438288 0.2412906779030737 Co
atom_frac 0.2862369041458024 0.8641915663455817 0.9999695892903659 Co
atom_frac 0.7137594698897801 0.1358108115505274 0.0000204500945031 Co
atom_frac 0.9999917475964467 0.1198525533689505 0.2397189511308895 Co
atom_frac 0.0000019956707504 0.8801476313996872 0.7602776032113283 Co
atom_frac 0.7268662190423995 0.5949486627755789 0.7426573108566433 H
atom_frac 0.4767242483886561 0.2654821503965720 0.8457233002658244 H
atom_frac 0.5834987772220545 0.3414141335007913 0.8730713763069462 H
atom_frac 0.6430236061886208 0.1975130498619677 0.7107266708092583 H
atom_frac 0.6549227917832353 0.0333989905187053 0.5986692426380318 H
atom_frac 0.3424084151174824 0.0985214329368702 0.4942973804283142 H
atom_frac 0.3402538017480622 0.2603830200308082 0.6153934800066809 H
atom_frac 0.5761283163723689 0.6103328248354031 0.0513078013338770 H
atom_frac 0.7379745816324573 0.8305834116846853 0.0490322698714608 H
atom_frac 0.9885428552013168 0.6783708506247379 0.9487377213419069 H
atom_frac 0.8113558827788906 0.4959704993904594 0.0478846083750639 H
atom_frac 0.2732259395955624 0.1478345365218701 0.7425916799020558 H
atom_frac 0.5233986059130870 0.5807839785546774 0.8463426598655918 H
atom_frac 0.4166552953962964 0.5320488506713587 0.8731681797620755 H
atom_frac 0.3565361220902901 0.5132458405045880 0.7107720097469896 H
atom_frac 0.3449324693253644 0.5652457266247097 0.5986909571940799 H
atom_frac 0.6575755415111217 0.3958034250594765 0.4943460470659888 H
atom_frac 0.6597059330461832 0.3551924237853825 0.6153627072181111 H
atom_frac 0.4241924652992495 0.4404135466862371 0.0510782576480723 H
atom_frac 0.2619616934776587 0.2185312190311990 0.0489379032836155 H
atom_frac 0.0117267995132480 0.2702288945665714 0.9486963556146437 H
atom_frac 0.1884957479779601 0.5517276011419553 0.0476480949084177 H
atom_frac 0.2731486020475700 0.4048979337790898 0.2571526868255348 H
atom_frac 0.5231828034458771 0.7343314872401407 0.1542418058619504 H
atom_frac 0.4163556368212938 0.6583403100892581 0.1270505067263343 H
atom_frac 0.3580283145013965 0.8023232897732767 0.2892008327820362 H
atom_frac 0.3461735424487459 0.9663044325140150 0.4015338424805393 H
atom_frac 0.6570703268675259 0.8997431691628249 0.5066939508646656 H
atom_frac 0.6593470631410482 0.7382326749624043 0.3850698525515315 H
atom_frac 0.4236975061572251 0.3894191511291681 0.9483675868653877 H
atom_frac 0.2619420943132483 0.1695303353624666 0.9510895586890630 H
atom_frac 0.0116328731486348 0.3216510934526439 0.0513741825929230 H
atom_frac 0.1885686256319374 0.5042546296380195 0.9523616761534658 H
atom_frac 0.7268431346239556 0.8520331682933460 0.2572485074509672 H
atom_frac 0.4765515711285815 0.4191553167518052 0.1533233760608539 H
atom_frac 0.5834488189651879 0.4681066332582516 0.1267713385281866 H
atom_frac 0.6424748727167541 0.4868492334908511 0.2890197412094936 H
atom_frac 0.6535988592406455 0.4349549017302509 0.4011923115233530 H
atom_frac 0.3426059543401934 0.6067214792099873 0.5062388276317336 H
atom_frac 0.3406637608424177 0.6466375939694229 0.3848454425252826 H
atom_frac 0.5760175904261188 0.5593253340103954 0.9485978763221683 H
atom_frac 0.7380748812818113 0.7815293422789011 0.9511746207700116 H
atom_frac 0.9883194413664215 0.7299322498732365 0.0514084055435475 H
atom_frac 0.8119214552605881 0.4482344789284625 0.9525803152246228 H
atom_frac 0.2268014376682431 0.9048350153704876 0.2573304522553387 H
atom_frac 0.9768503991317347 0.2345270418355695 0.1539239044512613 H
atom_frac 0.0845050395051032 0.1590543656544270 0.1270573785427800 H
atom_frac 0.1429896899866279 0.3017679659425240 0.2897241120607462 H
atom_frac 0.1540000683979912 0.4660241942370362 0.4009742454796453 H
atom_frac 0.8425285660438747 0.4004729592983695 0.5064151185907380 H
atom_frac 0.8409253032830010 0.2383126016315060 0.3857725650613518 H
atom_frac 0.0756525307904994 0.8894021658244425 0.9486899467270719 H
atom_frac 0.2379482779305847 0.6695586335517162 0.9510863685928046 H
atom_frac 0.4881392994559661 0.8215678306243532 0.0512504573384548 H
atom_frac 0.3112792155076249 0.0040882300051308 0.9523102651075637 H
atom_frac 0.7732207964367531 0.3521643518275255 0.2573133708912963 H
atom_frac 0.0232287686358035 0.9193901983697970 0.1539467188135930 H
atom_frac 0.9156451519801437 0.9679418517487262 0.1270271713035598 H
atom_frac 0.8572406666927890 0.9877896505275673 0.2896441043117479 H
atom_frac 0.8461691888978534 0.9348103180130494 0.4009830195566766 H
atom_frac 0.1574269514208311 0.1057749890309267 0.5062377575159973 H
atom_frac 0.1591364218678706 0.1472874664399981 0.3855106098562403 H
atom_frac 0.9243528071830339 0.0592704231204806 0.9487640198367945 H
atom_frac 0.7621580137555525 0.2816387846454163 0.9511863926268520 H
atom_frac 0.5119346984309842 0.2297482199071155 0.0513631495186999 H
atom_frac 0.6886893886929073 0.9482598011453546 0.9522912183238221 H
atom_frac 0.7735625205289196 0.0949233235013978 0.7425732880975108 H
atom_frac 0.0231713489270788 0.7654148647263668 0.8460485723276536 H
atom_frac 0.9154624517905035 0.8408751682724258 0.8728948464173671 H
atom_frac 0.8570451601284715 0.6982321749808094 0.7103185507706943 H
atom_frac 0.8459770393923094 0.5339876358605197 0.5990366883026186 H
atom_frac 0.1573120855718457 0.5995863392977441 0.4934916382046240 H
atom_frac 0.1589765799557270 0.7617277056789574 0.6141801352943262 H
atom_frac 0.9243166981884414 0.1105688692255171 0.0513027335194280 H
atom_frac 0.7620453858965422 0.3304443430873647 0.0490327320578956 H
atom_frac 0.5118702332394918 0.1784010858687921 0.9486772994985558 H
atom_frac 0.6887320635299261 0.9958916066953307 0.0476293511873180 H
atom_frac 0.2265314833135079 0.6479233948577701 0.7425632768871967 H
atom_frac 0.9767658543623342 0.0806551561802280 0.8460657482271190 H
atom_frac 0.0843862523032186 0.0320729422974750 0.8729386932531401 H
atom_frac 0.1427224324538017 0.0122170727239421 0.7103711594786548 H
atom_frac 0.1538219192587391 0.0651723698678168 0.5990189687708354 H
atom_frac 0.8426175568559345 0.8941407007560187 0.4937161485241008 H
atom_frac 0.8409159526471727 0.8526362196087973 0.6144642148124009 H
atom_frac 0.0756391783887764 0.9407035269253965 0.0512302801138417 H
atom_frac 0.2379468379443495 0.7184443728715452 0.0489270406641468 H
atom_frac 0.4880652259858068 0.7702775437786896 0.9485634022453201 H
atom_frac 0.3112650029442036 0.0517353357589272 0.0476494930531430 H
atom_frac 0.8220573440837668 0.5383824563259694 0.8037975912484331 C
atom_frac 0.7536363373066237 0.3631647343654266 0.8109581110535875 C
atom_frac 0.0742488767644573 0.5813044423753695 0.7945602751607128 C
atom_frac 0.9159944085703770 0.4663285759812296 0.7981358013327057 C
atom_frac 0.8812860988744478 0.3781505720661472 0.7990994233063519 C
atom_frac 0.0351991519995494 0.4876266275617310 0.7969707620396067 C
atom_frac 0.5768725125732247 0.1726866487293819 0.6622140103540418 C
atom_frac 0.5834486921842270 0.0800163139230392 0.5976553779812407 C
atom_frac 0.4985725931205138 0.0487648948321180 0.5348472782759475 C
atom_frac 0.4102254566797258 0.1162763183042230 0.5414123562639120 C
atom_frac 0.4088997952359891 0.2074784550829634 0.6081318532710400 C
atom_frac 0.1781525517826239 0.2655620322935377 0.8036394629665298 C
atom_frac 0.2467636409284211 0.4476107031480794 0.8103637095865397 C
atom_frac 0.9259769899559346 0.2134383953566754 0.7945686179200921 C
atom_frac 0.0842420114638003 0.3319549823057599 0.7980374439939413 C
atom_frac 0.1189747934269647 0.4210384909926931 0.7989175692161299 C
atom_frac 0.9650540852908734 0.3095447872798545 0.7970222939032399 C
atom_frac 0.4227155603063295 0.4894596923933605 0.6622299183633376 C
atom_frac 0.4163594336198527 0.5175314627448133 0.5976219036309801 C
atom_frac 0.5012079820875216 0.4859758926622106 0.5346906590856265 C
atom_frac 0.5895678749076511 0.4251254924859963 0.5413891619397972 C
atom_frac 0.5908079028001937 0.4006894065576175 0.6081612990878045 C
atom_frac 0.1781360547670587 0.4616929181257632 0.1960890526914271 C
atom_frac 0.2462786391101659 0.6370066370167750 0.1891149702504508 C
atom_frac 0.9258858484891022 0.4186128103095470 0.2052945910993459 C
atom_frac 0.0840930267596249 0.5336840586045923 0.2018067552143918 C
atom_frac 0.1186857586538537 0.6219362883016186 0.2009473184450954 C
atom_frac 0.9649320298151666 0.5123233393471266 0.2029652410336099 C
atom_frac 0.4240217378959841 0.8270169161985237 0.3378355834109072 C
atom_frac 0.4174278764161913 0.9195208960308108 0.4025799747012828 C
atom_frac 0.5019640654339100 0.9503398572390225 0.4656433985247050 C
atom_frac 0.5898628811439367 0.8825163466014914 0.4592093527334173 C
atom_frac 0.5912491815057450 0.7915178240798608 0.3922169647368464 C
atom_frac 0.8217773218542703 0.7342575341050476 0.1962293393299106 C
atom_frac 0.7533359246624229 0.5522626122296828 0.1896968161706027 C
atom_frac 0.0740342780016903 0.7865494371132019 0.2053919189570267 C
atom_frac 0.9157394989878468 0.6679694765271196 0.2018892956050919 C
atom_frac 0.8810915703535473 0.5789084830079361 0.2010916268411478 C
atom_frac 0.0348766539627121 0.6904772688408017 0.2029631256221763 C
atom_frac 0.5763803624061837 0.5108736274279478 0.3376391444692217 C
atom_frac 0.5825299352498163 0.4829919759095276 0.4023323141388674 C
atom_frac 0.4979309118501051 0.5152003554150895 0.4654751581493884 C
atom_frac 0.4101417660766913 0.5765681002552724 0.4589162521542465 C
atom_frac 0.4090006549180032 0.6006640333872466 0.3919536280517377 C
atom_frac 0.3218799900156100 0.9615596201722807 0.1961283408863892 C
atom_frac 0.2535204755789949 0.1369278344917291 0.1897456732943752 C
atom_frac 0.5741204678290471 0.9185545544342805 0.2051173559635304 C
atom_frac 0.4159315420292344 0.0334644542266531 0.2016607357449588 C
atom_frac 0.3812502232703919 0.1216809709142268 0.2008621710046087 C
atom_frac 0.5350813597422929 0.0122152586493840 0.2027494173934060 C
atom_frac 0.0767772599951542 0.3263638125049654 0.3382650421739868 C
atom_frac 0.0829381316048128 0.4192502960400405 0.4024669654441838 C
atom_frac 0.9983082136424316 0.4506427719058905 0.4655685859837250 C
atom_frac 0.9104027388271660 0.3828125603210779 0.4592612880602971 C
atom_frac 0.9093745823730758 0.2913207044800997 0.3927782702645858 C
atom_frac 0.6781585434648250 0.2343442125203623 0.1961741381378630 C
atom_frac 0.7465207801654898 0.0525494190341078 0.1897056940656655 C
atom_frac 0.4259048253674749 0.2863318316488305 0.2052231994337320 C
atom_frac 0.5841180884670153 0.1679680244476600 0.2017352737483762 C
atom_frac 0.6187923618028461 0.0789099860875311 0.2008417037632313 C
atom_frac 0.4649619289231808 0.1903213089211988 0.2028649127190576 C
atom_frac 0.9233852486766027 0.0117380098203199 0.3381752786093913 C
atom_frac 0.9171885579376778 0.9830760356882207 0.4024228105641186 C
atom_frac 0.0017109755995435 0.0148590380885381 0.4655179983823246 C
atom_frac 0.0896524485852410 0.0762703990762574 0.4590798830461723 C
atom_frac 0.0907152387532335 0.1012777442414432 0.3925711879664747 C
atom_frac 0.6782056590476204 0.0383640905980869 0.8038239786104598 C
atom_frac 0.7464557883865194 0.8630563633043808 0.8102034199942099 C
atom_frac 0.4258461977511629 0.0813517455711050 0.7947476265831102 C
atom_frac 0.5840797381067658 0.9664949880265327 0.7982669406898355 C
atom_frac 0.6187347978706299 0.8782726402865890 0.7990645109385002 C
atom_frac 0.4649299276793997 0.9877390957471164 0.7971645880380155 C
atom_frac 0.9232138482080002 0.6736356294131837 0.6617453076649726 C
atom_frac 0.9170162345795774 0.5807651979515640 0.5975228057155849 C
atom_frac 0.0015945425074548 0.5493960749932327 0.5343869572307656 C
atom_frac 0.0894764031746575 0.6172314114495021 0.5406696872498103 C
atom_frac 0.0905483001885159 0.7087050249556625 0.6071775466019391 C
atom_frac 0.3217818356570561 0.7656844185636515 0.8037962354659031 C
atom_frac 0.2534974944512172 0.9474362356277197 0.8102467323811029 C
atom_frac 0.5741379647132021 0.7136268851713651 0.7947030786088692 C
atom_frac 0.4158809225732725 0.8320117894104515 0.7982262800853664 C
atom_frac 0.3812215417778476 0.9210603792579803 0.7990950197970009 C
atom_frac 0.5350362106072027 0.8096388429321877 0.7970810302414438 C
atom_frac 0.0765988618657758 0.9882570678097977 0.6618261670786584 C
atom_frac 0.0828025542117601 0.0169059298844587 0.5975727253783349 C
atom_frac 0.9982906389126499 0.9851149142573872 0.5344746119112500 C
atom_frac 0.9103736789881154 0.9236664136759175 0.5408851082977651 C
atom_frac 0.9093091379923379 0.8986678091212992 0.6073986798560541 C
atom_frac 0.4911720299174434 0.2362172719870586 0.6683002961002488 N
atom_frac 0.5083373675495581 0.4319264768988448 0.6683561249589902 N
atom_frac 0.5094832448199186 0.7633383593906018 0.3317212849405706 N
atom_frac 0.4911096064487098 0.5686255068304433 0.3315115812838628 N
atom_frac 0.9916874573455843 0.2623677021069355 0.3325720884496520 N
atom_frac 0.0084106592744959 0.0700718969437588 0.3324351876375148 N
atom_frac 0.0082922833143613 0.7376288419423245 0.6674203285941047 N
atom_frac 0.9915778326654491 0.9299144475987118 0.6675540694207813 N
atom_frac 0.7704229141373135 0.5871399016893620 0.8702766821722039 O
atom_frac 0.7960691790843697 0.5429528390904252 0.7340565476074234 O
atom_frac 0.6818033523250477 0.3721368426622718 0.7603440296584695 O
atom_frac 0.7266537291102609 0.3487903013981891 0.8747260671944164 O
atom_frac 0.1507986478335397 0.5731372978540391 0.7401008219034967 O
atom_frac 0.0265822825451920 0.6593722276337176 0.8459798666336130 O
atom_frac 0.4973492732442680 0.3354330310629266 0.8588750951929855 O
atom_frac 0.2298583130328922 0.2833074053369842 0.8700715263574710 O
atom_frac 0.2040226776939207 0.1911720532663138 0.7339477938657313 O
atom_frac 0.3182534821022359 0.3879636317112372 0.7594592129559391 O
atom_frac 0.2737265054184235 0.5256786932910060 0.8741623924873283 O
atom_frac 0.8493432658386696 0.1673391354174498 0.7401883206674286 O
atom_frac 0.9736675474078281 0.1865917065398223 0.8458374274696541 O
atom_frac 0.5032111238210247 0.5244381989716587 0.8601902433775452 O
atom_frac 0.2300672730621969 0.4132524764256047 0.1296534911271082 O
atom_frac 0.2039176306418753 0.4568675273266933 0.2657450155417039 O
atom_frac 0.3181370290254720 0.6279894019023756 0.2396720755505513 O
atom_frac 0.2732761333201382 0.6513322760611120 0.1253123337321824 O
atom_frac 0.8491409649876048 0.4267545548574674 0.2596345572484112 O
atom_frac 0.9737370658157475 0.3405879278843714 0.1539823069286116 O
atom_frac 0.5025410909881671 0.6644154818070261 0.1411955699669178 O
atom_frac 0.7698123793747628 0.7162825273269536 0.1298418673045277 O
atom_frac 0.7960796907792583 0.8087663645289425 0.2658754170179733 O
atom_frac 0.6818093407710889 0.6118936836030003 0.2405656674077577 O
atom_frac 0.7264133374150390 0.4741975619514988 0.1258761268634103 O
atom_frac 0.1509052416927688 0.8324958095655576 0.2596269285470428 O
atom_frac 0.0261712510703660 0.8134994855870373 0.1542418749340726 O
atom_frac 0.4968448894436435 0.4755840370554906 0.1396241684921407 O
atom_frac 0.6254815807251293 0.5830421341055471 0.0000105901809064 O
atom_frac 0.7213067240306331 0.7696002026669078 0.0001567433642790 O
atom_frac 0.9503493361637114 0.6819826009607866 0.0001044531650721 O
atom_frac 0.8458049909185162 0.5043405715294683 0.0002702125629028 O
atom_frac 0.3745245414121925 0.4169276493882847 0.9997796396032116 O
atom_frac 0.2787683611441024 0.2304705577082374 0.9999623034910601 O
atom_frac 0.0497012787052498 0.3181654284271432 0.9999972110141117 O
atom_frac 0.1542455330332544 0.4958138742892189 0.9999733241193812 O
atom_frac 0.2695496709398881 0.9133938678458688 0.1298285215498112 O
atom_frac 0.2963189250494551 0.9566187931525576 0.2657881729874276 O
atom_frac 0.1824394098952951 0.1292889226604004 0.2414406162180001 O
atom_frac 0.2261495506467597 0.1511385568880144 0.1259676070016553 O
atom_frac 0.6508599002727776 0.9267416208464070 0.2594035929199663 O
atom_frac 0.5262377230509260 0.8405214429046453 0.1538865100730221 O
atom_frac 0.9980172172427401 0.1646210904282057 0.1407158528187296 O
atom_frac 0.7304288418929662 0.2163057009617333 0.1298162928871065 O
atom_frac 0.7037282307780828 0.3088168831709694 0.2658167730240281 O
atom_frac 0.8175143588430273 0.1118525874947878 0.2413683156861310 O
atom_frac 0.7739745226611136 0.9745888278847944 0.1259308123744420 O
atom_frac 0.3489467208742525 0.3323546612872689 0.2594219817525954 O
atom_frac 0.4739551342790520 0.3131173988143701 0.1539871863185098 O
atom_frac 0.0021108392084912 0.9760404022431575 0.1406540215479951 O
atom_frac 0.7303565528313526 0.0866427427221694 0.8701768416789835 O
atom_frac 0.7040502670852078 0.0431366053034026 0.7341409370222325 O
atom_frac 0.8175351063072470 0.8707215028468837 0.7585174814073314 O
atom_frac 0.7738214623114388 0.8488718650040570 0.8739938660304107 O
atom_frac 0.3491102648347920 0.0731318975738944 0.7404471811589988 O
atom_frac 0.4737009390077773 0.1593921469250006 0.8459749500789970 O
atom_frac 0.0019616332695733 0.8353171560608884 0.8592699289404777 O
atom_frac 0.2696471557659450 0.7836631359128814 0.8701946860665901 O
atom_frac 0.2960004040986277 0.6913560689149421 0.7341224668659552 O
atom_frac 0.1824934038744601 0.8881213980656283 0.7585916725497628 O
atom_frac 0.2260533804987830 0.0253924578679943 0.8740183300276458 O
atom_frac 0.6510873234149203 0.6675975094933405 0.7404906584179402 O
atom_frac 0.5261217877627901 0.6868398585415390 0.8459430511801148 O
atom_frac 0.9979065462963844 0.0239998636085446 0.8593470185376194 O
atom_frac 0.1251045451902399 0.9168696037337721 0.9999320339914278 O
atom_frac 0.2212523585443976 0.7305236348347108 0.0000080486369640 O
atom_frac 0.4502283979970657 0.8183433752616978 0.9999454527143216 O
atom_frac 0.3454424838557557 0.9957739461884501 0.9999691152786671 O
atom_frac 0.8748751842500655 0.0830846739730688 0.0000562191001805 O
atom_frac 0.7787642837673944 0.2695011842381091 0.0000840039352781 O
atom_frac 0.5497503014317004 0.1816365123746380 0.9999915036391445 O
atom_frac 0.6545327045317606 0.0042175808047986 0.9999889663355435 O
