#=======================================================
# FHI-aims file: ./geometry.in
# Created using the Atomic Simulation Environment (ASE)
# Wed Feb  9 14:46:22 2022
#=======================================================
lattice_vector 7.1370315900000003 -0.1240399000000000 0.2401868600000000 
lattice_vector 2.8954585700000002 8.0575570200000008 2.5678396499999998 
lattice_vector -0.0734866800000000 -0.4012990600000000 12.8879673799999992 
atom_frac 0.4999999300000000 0.4999998300000001 0.9999998500000001 Cd
atom_frac 0.6547656100000000 0.4423660600000001 0.2452287100000000 H
atom_frac 0.3452333300000001 0.5576343100000000 0.7547710099999999 H
atom_frac 0.5799486400000000 0.3274564100000000 0.4327857000000001 H
atom_frac 0.4200505700000001 0.6725437399999999 0.5672140200000000 H
atom_frac 0.0315621300000000 0.3169090400000001 0.3033504400000001 H
atom_frac 0.9684372300000001 0.6830907300000000 0.6966494500000000 H
atom_frac 0.1287624900000000 0.4369135000000000 0.1217245500000000 H
atom_frac 0.8712368700000002 0.5630861300000001 0.8782751800000000 H
atom_frac 0.4448684300000000 0.2905545100000001 0.7210359400000000 H
atom_frac 0.5551313700000000 0.7094452600000001 0.2789637400000000 H
atom_frac 0.2170706400000000 0.3010263100000001 0.7838276500000000 H
atom_frac 0.7829292600000000 0.6989735700000003 0.2161721600000000 H
atom_frac 0.2147570200000000 0.4093409700000001 0.6456473600000000 H
atom_frac 0.7852426999999998 0.5906589500000001 0.3543524300000000 H
atom_frac 0.4178991799999999 0.8798515700000002 0.7395301100000000 H
atom_frac 0.5821002600000001 0.1201483500000000 0.2604695900000000 H
atom_frac 0.3317223000000000 0.9883254600000002 0.8388023200000001 H
atom_frac 0.6682773600000002 0.0116743700000000 0.1611974500000000 H
atom_frac 0.5543635700000000 0.9968115300000001 0.7754397199999999 H
atom_frac 0.4456360100000001 0.0031883100000000 0.2245599600000000 H
atom_frac 0.9372938400000002 0.9984918100000001 0.5943844499999998 H
atom_frac 0.0627056200000000 0.0015082800000000 0.4056151800000000 H
atom_frac 0.0980293000000000 0.9005150700000000 0.7126840900000000 H
atom_frac 0.9019700400000000 0.0994848200000000 0.2873155800000000 H
atom_frac 0.2007384000000001 0.9280021000000002 0.5832005399999999 H
atom_frac 0.7992610700000000 0.0719979700000000 0.4167991700000000 H
atom_frac 0.8973050600000001 0.3495583600000001 0.7004969400000000 H
atom_frac 0.1026946400000000 0.6504415500000000 0.2995029200000000 H
atom_frac 0.9364182000000000 0.1490048900000000 0.7861292700000000 H
atom_frac 0.0635812100000000 0.8509950200000002 0.2138705100000000 H
atom_frac 0.7769713700000001 0.2181480500000000 0.6673237000000001 H
atom_frac 0.2230280799999999 0.7818520900000001 0.3326760400000000 H
atom_frac 0.5162868100000000 0.4148020800000000 0.2617397200000000 C
atom_frac 0.4837123000000000 0.5851980300000001 0.7382600000000000 C
atom_frac 0.4745702400000001 0.3502956500000001 0.3661174000000000 C
atom_frac 0.5254289500000000 0.6497044700000000 0.6338823399999999 C
atom_frac 0.2988218800000000 0.3112091300000001 0.3830158100000000 C
atom_frac 0.7011774000000000 0.6887908800000001 0.6169839400000000 C
atom_frac 0.1706446200000000 0.3441526400000001 0.2938848400000000 C
atom_frac 0.8293546499999999 0.6558472600000002 0.7061149300000000 C
atom_frac 0.2251018600000000 0.4105474199999999 0.1931563700000000 C
atom_frac 0.7748974000000000 0.5894523700000001 0.8068433800000001 C
atom_frac 0.2530706400000000 0.2402667300000000 0.4903507000000000 C
atom_frac 0.7469287800000000 0.7597331800000001 0.5096490600000000 C
atom_frac 0.2913490100000001 0.1430274000000000 0.6776199400000000 C
atom_frac 0.7086505000000000 0.8569725100000001 0.3223798299999999 C
atom_frac 0.0844024300000000 0.1497214800000000 0.6398018300000000 C
atom_frac 0.9155970300000000 0.8502784600000001 0.3601979700000000 C
atom_frac 0.2907279100000000 0.2966577799999999 0.7080729600000001 C
atom_frac 0.7092718099999999 0.7033421000000001 0.2919268000000000 C
atom_frac 0.4047214300000000 0.9926097500000000 0.7623047800000001 C
atom_frac 0.5952781100000000 0.0073901300000000 0.2376949600000000 C
atom_frac 0.0813694600000000 0.9830790400000000 0.6311695600000000 C
atom_frac 0.9186299800000000 0.0169209700000000 0.3688301500000000 C
atom_frac 0.9135600000000003 0.2226635800000000 0.7019406299999998 C
atom_frac 0.0864395100000000 0.7773363900000002 0.2980591700000000 C
atom_frac 0.0391764000000000 0.7380859600000000 0.9771134900000001 C
atom_frac 0.9608231100000001 0.2619135800000000 0.0228862600000000 C
atom_frac 0.7215232600000001 0.7613106100000000 0.0115790800000000 C
atom_frac 0.2784760800000001 0.2386891600000000 0.9884206000000000 C
atom_frac 0.3953504700000001 0.4437416900000001 0.1764417800000000 N
atom_frac 0.6046487600000000 0.5562581900000001 0.8235579500000001 N
atom_frac 0.3907534500000001 0.1513459500000000 0.5723056000000000 N
atom_frac 0.6092459800000000 0.8486539900000001 0.4276941400000000 N
atom_frac 0.0697542900000000 0.2558495500000000 0.5264516600000000 N
atom_frac 0.9302451200000001 0.7441503699999999 0.4735481200000001 N
atom_frac 0.5744827300000001 0.7298542000000001 0.0055263200000000 N
atom_frac 0.4255165600000000 0.2701456100000000 0.9944734700000000 N
atom_frac 0.1906890000000000 0.6825937500000001 0.9402389200000000 N
atom_frac 0.8093106900000001 0.3174055200000001 0.0597610900000000 N
atom_frac 0.8780324100000000 0.8021725300000001 1.0198632400000001 N
atom_frac 0.1219670400000000 0.1978270800000000 -0.0198635800000000 N
atom_frac 0.5759266000000000 0.1035815400000000 0.5672059900000000 O
atom_frac 0.4240727999999999 0.8964185700000002 0.4327937299999999 O
atom_frac 0.9068273100000001 0.3306521600000001 0.4719427800000000 O
atom_frac 0.0931721300000000 0.6693474800000001 0.5280569700000000 O
