#=======================================================
# FHI-aims file: ./geometry.in
# Created using the Atomic Simulation Environment (ASE)
# Wed Feb  9 14:46:27 2022
#=======================================================
lattice_vector 4.7746044100000002 0.4266210100000000 -0.9927430300000000 
lattice_vector -1.4803751199999999 8.5922175799999998 -1.5750432800000000 
lattice_vector 0.1259133400000000 -0.5617862000000000 11.2661857899999998 
atom_frac -0.0000110000000000 0.0000039000000000 0.9999886000000000 Mn
    initial_moment         4.000000
atom_frac 0.1714584100000000 0.2677562400000000 0.8791969600000000 H
atom_frac 0.3608363400000000 0.5297646300000001 0.8775489900000001 H
atom_frac 0.3137024300000000 0.8494186600000001 0.8022386000000000 H
atom_frac 0.3312409700000001 0.8437067700000001 0.5909047999999999 H
atom_frac 0.6229776600000000 0.1080057300000000 0.7905675299999999 H
atom_frac 0.6158451900000000 0.1162771300000000 0.5763515899999999 H
atom_frac 0.8285244000000002 0.7322563800000000 0.1207865300000000 H
atom_frac 0.6390656300000002 0.4702448800000001 0.1224032300000000 H
atom_frac 0.6862763400000000 0.1505784000000000 0.1977968200000000 H
atom_frac 0.6688183600000001 0.1562707700000000 0.4091423100000000 H
atom_frac 0.3770164200000001 0.8920034100000002 0.2094216600000000 H
atom_frac 0.3842227100000000 0.8837052700000000 0.4236386600000000 H
atom_frac 0.0964488200000000 0.3697996300000000 0.9330802799999999 C
atom_frac 0.5402765899999999 0.1761631000000000 0.0179769400000000 C
atom_frac 0.2109460200000000 0.5169581600000001 0.9355866900000001 C
atom_frac -0.0087564100000000 -0.0059542700000000 0.5625234600000000 C
atom_frac 0.8899779400000001 0.3499525800000000 -0.0015175000000000 C
atom_frac 0.1576971100000000 0.9082675300000000 0.7512163800000000 C
atom_frac 0.1750130300000001 0.9109155300000001 0.6304898799999999 C
atom_frac 0.7770503600000002 0.0494588600000000 0.7433691099999999 C
atom_frac 0.7841919000000001 0.0593640000000000 0.6230470000000000 C
atom_frac 0.9034958400000002 0.6302067700000001 0.0668919300000000 C
atom_frac 0.4597588100000001 0.8238268100000001 0.9820466899999999 C
atom_frac 0.7889779000000000 0.4830479200000000 0.0643754800000000 C
atom_frac 1.0088340899999999 1.0059428000000001 0.4374963500000000 C
atom_frac 0.1099717500000000 0.6500555400000001 1.0014915099999997 C
atom_frac 0.8423090500000000 0.0917337300000000 0.2488115600000000 C
atom_frac 0.8250430100000001 0.0890768900000000 0.3695422999999999 C
atom_frac 0.2229556299999999 0.9505436799999998 0.2566326400000000 C
atom_frac 0.2158628700000000 0.9406255300000000 0.3769578400000000 C
atom_frac -0.0298969000000000 -0.0198147000000000 0.8120085800000000 N
atom_frac 0.3342235100000001 0.1222522700000000 0.0393495600000000 N
atom_frac 0.7878079400000001 0.2000235000000000 0.0001658700000000 N
atom_frac 1.0298892399999999 1.0198228600000003 0.1880077400000000 N
atom_frac 0.6657590500000000 0.8777673300000001 0.9606437800000001 N
atom_frac 0.2121830500000001 0.7999820700000000 0.9998213099999999 N
