#=======================================================
# FHI-aims file: ./geometry.in
# Created using the Atomic Simulation Environment (ASE)
# Fri Jan 14 15:06:22 2022
#=======================================================
lattice_vector -6.7423082509999999 0.0000000000000000 -2.0757370000000002 
lattice_vector -0.8464732030000000 -9.8027927449999996 -0.2210130000000000 
lattice_vector -6.6953285420000004 -0.0086437390000000 10.3071057069999998 
atom_frac 0.9999956460384997 0.5000032360682384 0.5000041062966999 Co
atom_frac 0.4999949218643566 0.5000012010050200 0.4999982411224975 Co
atom_frac 0.8910823676798146 0.1594394973589246 0.6313994468738782 H
atom_frac 0.5004820906019563 0.0934550498535529 0.6293011984759217 H
atom_frac 0.4111226070784326 0.2845895627445501 0.0853217600633300 H
atom_frac 0.3039084490197156 0.2966229754015473 0.2957572797410036 H
atom_frac 0.4770922268432328 0.8406098415754500 0.6312018015075366 H
atom_frac 0.8694560810189176 0.9065067168647475 0.6296502733888544 H
atom_frac 0.5033845429965709 0.7156683277609873 0.0846518848309614 H
atom_frac 0.4003033331979325 0.7039095417941824 0.2950864855724972 H
atom_frac 0.1089226806116202 0.8405190231868572 0.3686156499371122 H
atom_frac 0.4995316122015936 0.9064943002485324 0.3707018617556627 H
atom_frac 0.5888907482439483 0.7154138158367971 0.9147241075022731 H
atom_frac 0.6960384619822123 0.7034987318231175 0.7042942374449409 H
atom_frac 0.5229179440118445 0.1593385035987041 0.3687840324043349 H
atom_frac 0.1305543933582600 0.0934508014397579 0.3703445501866226 H
atom_frac 0.4966775180381903 0.2843259528237141 0.9152997845616681 H
atom_frac 0.5997145732678961 0.2962092020297150 0.7048550795986867 H
atom_frac 0.1953996469633736 0.1419175802020405 0.6329869987372945 C
atom_frac 0.0161676165458291 0.0884974938566572 0.6359989897089875 C
atom_frac 0.3600420118819160 0.0517934389261683 0.6351016216404373 C
atom_frac 0.2163322586354046 0.2917637858522327 0.6131694621947473 C
atom_frac 0.4114074762886303 0.3814498661239440 0.1256423613654292 C
atom_frac 0.3538536339359910 0.3829376591856999 0.2419662078095540 C
atom_frac 0.1710578563484831 0.8580693115449665 0.6333344956268760 C
atom_frac 0.3476024749622227 0.9115231945976563 0.6359563955889767 C
atom_frac 0.0043949403446251 0.9481458813282162 0.6354233178678041 C
atom_frac 0.1706079810427216 0.7082511870646188 0.6132070629740338 C
atom_frac 0.4626502293053251 0.6188519217627900 0.1252780902339197 C
atom_frac 0.4041268766402553 0.6174252466589608 0.2415935362810230 C
atom_frac 0.8046103893151511 0.8580480929772989 0.3670147029044201 C
atom_frac 0.9838411274662705 0.9114661350784488 0.3640072588726325 C
atom_frac 0.6399681565865691 0.9481640751552903 0.3648979912602001 C
atom_frac 0.7836650281537133 0.7082090439658515 0.3868143020276804 C
atom_frac 0.5885964922534513 0.6185800683291873 0.8743662876729558 C
atom_frac 0.6461312458842557 0.6171371629765190 0.7580395594888214 C
atom_frac 0.8289401306326739 0.1418983979820325 0.3666716145159512 C
atom_frac 0.6524065823184345 0.0884332995829524 0.3640429716612273 C
atom_frac 0.9956081130517377 0.0518197922356265 0.3645779477114530 C
atom_frac 0.8293628748156938 0.2917256936206202 0.3868102733920508 C
atom_frac 0.5373599730382496 0.3811739491556594 0.8747113527957990 C
atom_frac 0.5958670810710487 0.3826465281398158 0.7583975003842411 C
atom_frac 0.4689764899200385 0.5000877137539064 0.0617542650896397 C
atom_frac 0.5310425628840322 0.4999310089174359 0.9382435984778323 C
atom_frac 0.3509886743263949 0.5001707664920901 0.2984401738895385 N
atom_frac 0.6490071386801406 0.4999040614279481 0.7015590635147929 N
atom_frac 0.0597875391413682 0.3695310945489112 0.6181662014591608 O
atom_frac 0.3917094570366830 0.3291125235200312 0.5886506000672113 O
atom_frac 0.3231210961975040 0.6316209467856382 0.6178767382626659 O
atom_frac 0.0192143375317430 0.6704301181914617 0.5879980137334754 O
atom_frac 0.9402068497963258 0.6304396895991006 0.3818237267344884 O
atom_frac 0.6082878711811547 0.6708664448446627 0.4113129298322065 O
atom_frac 0.6768527847790441 0.3683528824781278 0.3821304696486365 O
atom_frac 0.9807328579306545 0.3295528641864536 0.4120408840486148 O
atom_frac 0.2957766190697698 0.4998662321846227 0.4112717505781446 O
atom_frac 0.7042243365372374 0.5001463688339172 0.5887271881712406 O
