#=======================================================
# FHI-aims file: ./geometry.in
# Created using the Atomic Simulation Environment (ASE)
# Fri Jan 14 15:06:22 2022
#=======================================================
lattice_vector -11.2173345460000000 0.0683488920000000 -3.9130489919999998 
lattice_vector 7.0844164679999997 -13.6229643970000005 -1.8344838400000001 
lattice_vector 0.2623948690000000 0.5358124670000000 16.5044616349999984 
atom_frac 0.5000011174687417 0.5000001971576751 0.0000006755986774 Co
atom_frac 0.4999967526984221 0.9999981986434392 0.4999988795205754 Co
atom_frac 0.0000032415001314 0.4999997934578245 0.9999984383162545 Co
atom_frac 0.9999999747134680 0.9999994049935098 0.5000001110016685 Co
atom_frac 0.2764271883989052 0.2971181934064546 0.9791244339064351 H
atom_frac 0.4898731966362249 0.1907004783651658 0.5201699367121722 H
atom_frac 0.7235756733253497 0.7028838864020274 0.0208777600725655 H
atom_frac 0.5101278423763204 0.8093026475615088 0.4798404239510746 H
atom_frac 0.2299536804151217 0.1225623651955985 0.9504550371053996 H
atom_frac 0.6466968087007742 0.3661249850838074 0.5499062535142586 H
atom_frac 0.7700517632419589 0.8774407284392536 0.0495539406803188 H
atom_frac 0.3533014704579783 0.6338741035357670 0.4500951274063497 H
atom_frac 0.5883650957076939 0.2105781391339008 0.9003791802861445 H
atom_frac 0.9671830727495063 0.2849822182811863 0.5933171428785046 H
atom_frac 0.4116297563365592 0.7894199713552296 0.0996164322044777 H
atom_frac 0.0328141680043146 0.7150153090177299 0.4066820006139624 H
atom_frac 0.6216820529897334 0.3804708954840024 0.9351222948964522 H
atom_frac 0.7962727222923081 0.1136221599381457 0.5583600600490261 H
atom_frac 0.3783160772222088 0.6195280713124162 0.0648760076857116 H
atom_frac 0.2037216552335224 0.8863752064375988 0.4416353572290604 H
atom_frac 0.4965321398873642 0.8877384528858414 0.7689106567726898 H
atom_frac 0.3313893522324705 0.6138345994811871 0.7227095731859026 H
atom_frac 0.5034781668151922 0.1122696563276904 0.2310945784088717 H
atom_frac 0.6686178996492272 0.3861659972066747 0.2772916791168428 H
atom_frac 0.5493067645304778 0.9050057885032102 0.6366352933971557 H
atom_frac 0.4985823488958943 0.5974363112651915 0.8529029742096913 H
atom_frac 0.4506942280942639 0.0949962165093368 0.3633652373291697 H
atom_frac 0.5014204540648278 0.4025628425210711 0.1470994865041462 H
atom_frac 0.4364204664957043 0.1247998070874985 0.6135812315362658 H
atom_frac 0.1886729308964378 0.3677845624939807 0.8739819315262809 H
atom_frac 0.5635600884526042 0.8751899634564068 0.3864094583623087 H
atom_frac 0.8113250661519448 0.6322182563217495 0.1260210089164460 H
atom_frac 0.3876420341302094 0.1221022086876573 0.7452031500072566 H
atom_frac 0.0104044860560179 0.3737990778876891 0.7480796347384528 H
atom_frac 0.6123450755230948 0.8778950290567521 0.2547899239339699 H
atom_frac 0.9895952754215215 0.6262051690942553 0.2519220650849193 H
atom_frac 0.2103505468999174 0.8813875398562914 0.0491475100549152 H
atom_frac 0.7741970909371858 0.6131344856778824 0.4471037356574713 H
atom_frac 0.7896485613230340 0.1186158168244873 0.9508503005497960 H
atom_frac 0.2257964418879511 0.3868683167004150 0.5528993563274016 H
atom_frac 0.0907068716982094 0.7241260805014701 0.0777400713845608 H
atom_frac 0.7854703496278720 0.7702300234250146 0.4212484263145912 H
atom_frac 0.9092943128536179 0.2758749985139913 0.9222555547463717 H
atom_frac 0.2145250820861335 0.2297728781138559 0.5787569445906373 H
atom_frac 0.1072588488029709 0.5558061175666467 0.8694010618687289 H
atom_frac 0.1744180935750136 0.9406741663717637 0.6307232754620388 H
atom_frac 0.8927547057969393 0.4441974232829223 0.1305995884066392 H
atom_frac 0.8255823061890555 0.0593241197759156 0.3692760954512196 H
atom_frac 0.2292041913603597 0.7059038080019561 0.8300601777453169 H
atom_frac 0.1835305736262498 0.7910426025197026 0.6671571142831356 H
atom_frac 0.7708072860954830 0.2941048878058793 0.1699411589336038 H
atom_frac 0.8164660138729901 0.2089540344780474 0.3328381399906706 H
atom_frac 0.1579923240701788 0.4962107643071292 0.3107112759090002 H
atom_frac 0.8490313221686778 0.0035488016637260 0.1878359589820137 H
atom_frac 0.8420034496671250 0.5037801781652503 0.6892886055496564 H
atom_frac 0.1509669102680462 0.9964574436413044 0.8121607532615160 H
atom_frac 0.1823907069938285 0.3493081290149646 0.3401488648442665 H
atom_frac 0.9946859183244288 0.1528207575156202 0.1595260723046864 H
atom_frac 0.8176067571068305 0.6506827420655698 0.6598489858609329 H
atom_frac 0.0053224890082787 0.8471818522307117 0.8404702246264650 H
atom_frac 0.2861422309079559 0.3174697929653405 0.1172465855537155 H
atom_frac 0.3483354322149880 0.1851201744124822 0.3795678840586661 H
atom_frac 0.7138530674957408 0.6825232826866167 0.8827516026221859 H
atom_frac 0.6516641521567691 0.8148781717957544 0.6204331178990118 H
atom_frac 0.3052980769408721 0.0105683578537494 0.0014101528693118 H
atom_frac 0.7840567977886368 0.4820055406790614 0.4958916090948123 H
atom_frac 0.6947050958679101 0.9894328934161720 0.9985895991850460 H
atom_frac 0.2159408149246076 0.5179937298242123 0.5041144812086602 H
atom_frac 0.3445341993292956 0.2750123320202320 0.9632561928934964 C
atom_frac 0.5964549558697313 0.2147038849187055 0.5361882421139655 C
atom_frac 0.6554673129055075 0.7249890150061660 0.0367462055820128 C
atom_frac 0.4035434569335409 0.7852967519881844 0.4638151602761341 C
atom_frac 0.3207111724744891 0.1776003972982423 0.9484916221561837 C
atom_frac 0.6853316152346595 0.3128902618745856 0.5509600080500905 C
atom_frac 0.6792946265435663 0.8224033429914714 0.0515150881713141 C
atom_frac 0.3146685773000469 0.6871103767343455 0.4490432105896149 C
atom_frac 0.4079839058798029 0.1506093696685795 0.9249893637299924 C
atom_frac 0.8232871649814939 0.3429484023201539 0.5721462791032439 C
atom_frac 0.5920195052438756 0.8493920765183843 0.0750153136658724 C
atom_frac 0.1767125232454278 0.6570514678107672 0.4278561286562381 C
atom_frac 0.5164511667954770 0.2256428665664670 0.9181866846136446 C
atom_frac 0.8625705114896222 0.2686969909321490 0.5772239754874634 C
atom_frac 0.4835474677242433 0.7743568687079688 0.0818124288487426 C
atom_frac 0.1374244750143491 0.7312997905513400 0.4227751565428692 C
atom_frac 0.5344441543150539 0.3215451402014082 0.9363338147353562 C
atom_frac 0.7669683815739035 0.1715811876487265 0.5594176879313439 C
atom_frac 0.4655525966180746 0.6784530694482881 0.0636640766756287 C
atom_frac 0.2330243208908628 0.8284148236547040 0.4405808169691598 C
atom_frac 0.3832559149580846 0.0485734269657314 0.9061359691255861 C
atom_frac 0.9191054025036891 0.4460526820255523 0.5897211990928002 C
atom_frac 0.6167427638380901 0.9514277835021262 0.0938633188032228 C
atom_frac 0.0808923868343639 0.5539470889448024 0.4102789297463191 C
atom_frac 0.3018119426571387 0.8933583281147079 0.9130250151442711 C
atom_frac 0.9856317324314646 0.6015649882861355 0.5827628140501206 C
atom_frac 0.6981894649073013 0.1066443722819628 0.0869744794592152 C
atom_frac 0.0143664871485570 0.3984340516041698 0.4172373355351128 C
atom_frac 0.3960764318336204 0.9866960365210886 0.8429135541646248 C
atom_frac 0.0571103019299812 0.5099124804367534 0.6513960801833536 C
atom_frac 0.6039318431507256 0.0133075479515909 0.1570888786973087 C
atom_frac 0.9428918026845140 0.4900871851478782 0.3486008187751822 C
atom_frac 0.4388432043599125 0.0043301723798947 0.7708393567193144 C
atom_frac 0.1549438558954961 0.4936805808180438 0.7218061521920662 C
atom_frac 0.5611549403391082 0.9956702452453216 0.2291585046615909 C
atom_frac 0.8450585160080595 0.5063221813412254 0.2781947897054452 C
atom_frac 0.4851405247269511 0.9430979261321043 0.7376100363353688 C
atom_frac 0.2958861774170884 0.5569045008677449 0.7534477458618272 C
atom_frac 0.5148655845604324 0.0569078629120057 0.2623927339972738 C
atom_frac 0.7041183303940669 0.4430960323554699 0.2465522428972875 C
atom_frac 0.5113752789395321 0.9501829709907098 0.6627633222471803 C
atom_frac 0.3890854421928864 0.5493282124121776 0.8266233960015514 C
atom_frac 0.4886256838958475 0.0498190096572131 0.3372365928114647 C
atom_frac 0.6109160257654622 0.4506716594207915 0.1733788280075359 C
atom_frac 0.4521665418940657 0.0747430003517451 0.6505189260160338 C
atom_frac 0.2173854991121971 0.4208142004087634 0.8385560986199823 C
atom_frac 0.5478228228242868 0.9252521059151347 0.3494756574575463 C
atom_frac 0.7826151679409323 0.5791871823135538 0.1614473152322590 C
atom_frac 0.4257749031340553 0.0730965559678367 0.7261692487317718 C
atom_frac 0.1168964765878186 0.4233491734047304 0.7657734700274335 C
atom_frac 0.5742163596579813 0.9269015267525729 0.2738261155919519 C
atom_frac 0.8831050501340700 0.5766536244504649 0.2342284872468100 C
atom_frac 0.2313115608116050 0.8069204184315666 0.9362944565777414 C
atom_frac 0.9797559780938062 0.6881442446740638 0.5605679751049666 C
atom_frac 0.7686915966949002 0.1930822593025212 0.0637042386076629 C
atom_frac 0.0202408622074088 0.3118540380695264 0.4394317633090879 C
atom_frac 0.1895347816482200 0.8112819124230412 0.0061590887694436 C
atom_frac 0.8659465417120773 0.6836155199783037 0.4911110126219926 C
atom_frac 0.8104674413085322 0.1887207279130791 0.9938387747896235 C
atom_frac 0.1340482077731763 0.3163835896018056 0.5088913514670922 C
atom_frac 0.1215350496248108 0.7238918537206872 0.0227060124270012 C
atom_frac 0.8701801916196459 0.7711839452811587 0.4760538320316671 C
atom_frac 0.8784657940531276 0.2761100294687110 0.9772914399608867 C
atom_frac 0.1298186506104102 0.2288188378386451 0.5239480930343278 C
atom_frac 0.1324020496711710 0.6298649384245251 0.9065822980978951 C
atom_frac 0.0883605177364684 0.8661861226400231 0.5924896973639876 C
atom_frac 0.8676056759137580 0.3701392796696794 0.0934176513471670 C
atom_frac 0.9116390658200970 0.1338151008611774 0.4075098065234714 C
atom_frac 0.2006742826214704 0.7129621386549090 0.8856493561855319 C
atom_frac 0.0932974563649012 0.7830295887244674 0.6119443861727450 C
atom_frac 0.7993343034474096 0.2870406172792102 0.1143506347517588 C
atom_frac 0.9066998286653672 0.2169694137678775 0.3880549317861509 C
atom_frac 0.2039183725256849 0.5867960052463773 0.1911368235346203 C
atom_frac 0.9203667703690642 0.9123484022425002 0.3068121078659233 C
atom_frac 0.7960827846823550 0.4131964175255688 0.8088626811392747 C
atom_frac 0.0796303657143937 0.0876504784266885 0.6931841317545280 C
atom_frac 0.2065002113683364 0.4903228018236874 0.1972257424846121 C
atom_frac 0.0140499661125091 0.0095874452481013 0.2998980717197243 C
atom_frac 0.7934983209266095 0.5096696549421367 0.8027749613164094 C
atom_frac 0.9859473921683701 0.9904159340952600 0.7001005383030616 C
atom_frac 0.1858010170490586 0.4566627355440928 0.2680432109206592 C
atom_frac 0.9587389503404609 0.0436965740224551 0.2301143306652592 C
atom_frac 0.8141970850039044 0.5433304523017738 0.7319574721342551 C
atom_frac 0.0412606468879914 0.9563089776004999 0.7698832339507222 C
atom_frac 0.1998858264701795 0.3750044678878054 0.2852127365408706 C
atom_frac 0.0394985109671140 0.1267748440942782 0.2136559246414223 C
atom_frac 0.8001135952828805 0.6249894283755210 0.7147871263498403 C
atom_frac 0.9605063964814564 0.8732278109772266 0.7863419711258931 C
atom_frac 0.2391453940042751 0.3267240795954010 0.2310046683995637 C
atom_frac 0.1809033101531909 0.1761199096098949 0.2674829837626548 C
atom_frac 0.7608568305828600 0.6732728061547917 0.7689961912999410 C
atom_frac 0.8191001737401181 0.8238805131214590 0.7325143263670599 C
atom_frac 0.2574939874740351 0.3571056637271467 0.1593436499518576 C
atom_frac 0.2380619876747546 0.1451114980006309 0.3380427088365679 C
atom_frac 0.7425054342790246 0.6428882325361797 0.8406562129388606 C
atom_frac 0.7619376554605355 0.8548897742298252 0.6619580263862733 C
atom_frac 0.2391955466513167 0.4374447191083418 0.1409169964005558 C
atom_frac 0.1554246471592649 0.0633346545366322 0.3556517497492991 C
atom_frac 0.7608049432960301 0.5625507628402743 0.8590857195859914 C
atom_frac 0.8445726225687268 0.9366657744198720 0.6443465113406435 C
atom_frac 0.2571193902221722 0.4630988624559934 0.0605538170424822 C
atom_frac 0.2250800267348653 0.0352199907024655 0.4333730983599440 C
atom_frac 0.7428844366563963 0.5369004018221302 0.9394513223007623 C
atom_frac 0.7749152257620012 0.9647773643419909 0.5666219192090980 C
atom_frac 0.4509651656944129 0.3475996441433223 0.9590754952861150 N
atom_frac 0.6340716646406223 0.1429656243621835 0.5384860053174167 N
atom_frac 0.5490376219640324 0.6524009361071135 0.0409259085587763 N
atom_frac 0.3659224911687672 0.8570326436460219 0.4615137008883823 N
atom_frac 0.3240578744587096 0.9873303238357208 0.9493188090178465 N
atom_frac 0.8777170964092562 0.5064590628910040 0.5474168843351352 N
atom_frac 0.6759463367549970 0.0126724887548590 0.0506831804646525 N
atom_frac 0.1222807082310737 0.4935392816151917 0.4525843013729373 N
atom_frac 0.3462959069801883 0.8920845722812700 0.8492102251783538 N
atom_frac 0.0951364300567119 0.6043142264641259 0.6451860369613557 N
atom_frac 0.6537064794104523 0.1079196407068039 0.1507902755178918 N
atom_frac 0.9048667725414319 0.3956870491704194 0.3548143307606892 N
atom_frac 0.4918183339534751 0.0131859008867607 0.6171857515433816 N
atom_frac 0.3516629065799037 0.4837445853519924 0.8704528584056421 N
atom_frac 0.5081728845621070 0.9868107066402200 0.3828094383139203 N
atom_frac 0.6483382052022791 0.5162575171190795 0.1295501349914404 N
atom_frac 0.0927822700901898 0.6342185796895450 0.9737279324421951 N
atom_frac 0.9791596152746251 0.8617677398840724 0.5259988923115274 N
atom_frac 0.9072258116709051 0.3657834077665640 0.0262712476148650 N
atom_frac 0.0208396427103281 0.1382328613268982 0.4740034947018403 N
atom_frac 0.0928601593558297 0.5807660722994540 0.1323758614934008 O
atom_frac 0.8747195413307270 0.9174667136513011 0.3673678314087072 O
atom_frac 0.9071466928884463 0.4192324025401247 0.8676274838011440 O
atom_frac 0.1252796119838635 0.0825352409299427 0.6326316517326448 O
atom_frac 0.3067558560530017 0.6658406200172918 0.2463112484768787 O
atom_frac 0.8891825714623779 0.8338482147288884 0.2512257674073340 O
atom_frac 0.6932506540212203 0.3341561359825532 0.7536857656743481 O
atom_frac 0.1108165810370210 0.1661566171453188 0.7487722176637920 O
atom_frac 0.3547126698450783 0.4560613661339303 0.0489416304070787 O
atom_frac 0.3389931465702887 0.0415861015196057 0.4421438265040437 O
atom_frac 0.6452893619997797 0.5439393229063186 0.9510626358176142 O
atom_frac 0.6609963955880644 0.9584066279213842 0.5578462935754021 O
atom_frac 0.1774112483385081 0.4880365507839811 0.0085639916859392 O
atom_frac 0.1707266183827798 0.0070030546996307 0.4856613193398119 O
atom_frac 0.8225929636903971 0.5119633845136350 0.9914394958667788 O
atom_frac 0.8292682489637501 0.9929936293253332 0.5143353500197635 O
atom_frac 0.2705074295592524 0.2522418395325516 0.2495326714702416 O
atom_frac 0.7294973748493450 0.7477564143233054 0.7504653165654961 O
