#=======================================================
# FHI-aims file: ./geometry.in
# Created using the Atomic Simulation Environment (ASE)
# Fri Jan 14 15:06:22 2022
#=======================================================
lattice_vector 8.7921059909999997 0.0200399310000000 0.0000340160000000 
lattice_vector -2.2972818429999999 9.2834761239999999 0.0000129660000000 
lattice_vector 0.0000578170000000 0.0000377910000000 15.1618167400000008 
atom_frac 0.8289380584958222 0.0240751477602785 0.4519353853293353 K
atom_frac 0.6710559363266597 0.9759141931022129 0.9519356926126434 K
atom_frac 0.1710462697435702 0.9759223174450967 0.5480584332587880 K
atom_frac 0.3289445644075357 0.0240929317855390 0.0480706574107259 K
atom_frac 0.8458453301050139 0.6618720224453583 0.4286849496568053 H
atom_frac 0.6541526650234671 0.3381358111512043 0.9286930191502876 H
atom_frac 0.1541500841839039 0.3381243416032547 0.5713194217324755 H
atom_frac 0.3458438859377110 0.6618605504061251 0.0713205859583894 H
atom_frac 0.9276621561277095 0.4873990370321621 0.3278889469698356 H
atom_frac 0.5723649414263932 0.5126106316016108 0.8278871918303281 H
atom_frac 0.0723451997214752 0.5125951468651238 0.6721174030492207 H
atom_frac 0.4276580128302355 0.4873953676149654 0.1721237750046001 H
atom_frac 0.1630081635618623 0.5802066638724669 0.2280067746125951 H
atom_frac 0.3370399004159523 0.4198016109210344 0.7280000333326200 H
atom_frac 0.8369957474157202 0.4198004536617576 0.7719975967484203 H
atom_frac 0.6629966832412607 0.5802086676265364 0.2720056570555300 H
atom_frac 0.2922410064829818 0.8371707661521056 0.2299783241130058 H
atom_frac 0.2078200710800573 0.1628482363423701 0.7299673257561210 H
atom_frac 0.7077538221456335 0.1628320622785111 0.7700207708595102 H
atom_frac 0.7922173334042668 0.8371738894646300 0.2700330882075123 H
atom_frac 0.4131764568948951 0.0435365459801886 0.2510434894555260 H
atom_frac 0.0868439504228674 0.9564802184530662 0.7510290382387055 H
atom_frac 0.5868215006242181 0.9564651984920118 0.7489608819234448 H
atom_frac 0.9131735784226223 0.0435354871786444 0.2489674184656039 H
atom_frac 0.5100755319772148 0.3049222877615351 0.2472394146381376 H
atom_frac 0.9899232303351937 0.6950924074076427 0.7472315164128035 H
atom_frac 0.4899138826822806 0.6950859382696069 0.7527596803419173 H
atom_frac 0.0100837981160424 0.3049179349961478 0.2527603234586735 H
atom_frac 0.3573898477031747 0.4630900618973187 0.3280999845801559 H
atom_frac 0.1426006713783181 0.5369293711842718 0.8280998512760931 H
atom_frac 0.6425970237160569 0.5369127837048993 0.6719004295133358 H
atom_frac 0.8573998178181694 0.4630820624672938 0.1719045200889155 H
atom_frac 0.1269872779295014 0.3405501745530657 0.4172746164472656 H
atom_frac 0.3730067538557903 0.6594523671758807 0.9172765374911690 H
atom_frac 0.8730035778557194 0.6594505080774340 0.5827271167422766 H
atom_frac 0.6269963132142209 0.3405515206238690 0.0827298125292089 H
atom_frac 0.8296373689568668 0.3420451659850698 0.4231859185562001 H
atom_frac 0.6703658660032729 0.6579476205559588 0.9231834750355787 H
atom_frac 0.1703523848044597 0.6579425928639895 0.5768079000280578 H
atom_frac 0.3296306735158865 0.3420530498159949 0.0768156199349477 H
atom_frac 0.6534044116842564 0.2737596607050393 0.3849277645488627 H
atom_frac 0.8465982476385745 0.7262420560117209 0.8849277112196178 H
atom_frac 0.3465842053393544 0.7262281006005439 0.6150653944863649 H
atom_frac 0.1533985731831038 0.2737596909383911 0.1150707241977926 H
atom_frac 0.6436821743052689 0.4671129782089238 0.4888261199178885 H
atom_frac 0.8563260117604514 0.5328846491546672 0.9888210772446014 H
atom_frac 0.3563058685806267 0.5328769387068277 0.5111657200136577 H
atom_frac 0.1436645743103070 0.4671106481605989 0.0111766986407460 H
atom_frac 0.7350524018908047 0.3742777102226143 0.5666425264794980 H
atom_frac 0.7649494803950033 0.6257093645993310 0.0666394986733536 H
atom_frac 0.2649362035799924 0.6257143598387602 0.4333506325520773 H
atom_frac 0.2350456526568648 0.3742859229058836 0.9333569580986634 H
atom_frac 0.4411836478913996 0.3352253629205110 0.5836655855903031 H
atom_frac 0.0588197555945058 0.6647744887771907 0.0836640754517646 H
atom_frac 0.5588006919058442 0.6647677935317445 0.4163275734499123 H
atom_frac 0.9411697052661693 0.3352165022254355 0.9163363386460617 H
atom_frac 0.4179449121378126 0.2554556412379228 0.4780668830949111 H
atom_frac 0.0820581291469438 0.7445496176499519 0.9780679854649321 H
atom_frac 0.5820434235933474 0.7445310434948453 0.5219256163903054 H
atom_frac 0.9179432732991654 0.2554391932147125 0.0219311095048269 H
atom_frac 0.5638529048296803 0.0833663794680533 0.5459860042505085 H
atom_frac 0.9361393319453268 0.9166262702596768 0.0459843489249465 H
atom_frac 0.4361368373536577 0.9166256881234319 0.4540111120879188 H
atom_frac 0.0638634770285051 0.0833679235038076 0.9540094696245165 H
atom_frac 0.5257493877350753 0.1453550113640958 0.6414501901858358 H
atom_frac 0.9742305979191100 0.8546347331981394 0.1414530868006025 H
atom_frac 0.4742392061677946 0.8546413674450478 0.3585449474967888 H
atom_frac 0.0257585701164444 0.1453594899981638 0.8585440295372777 H
atom_frac 0.9446288918280529 0.6987603698990625 0.3834730960728265 C
atom_frac 0.5553823095477950 0.3012434946108939 0.8834671617454362 C
atom_frac 0.0553739170803169 0.3012338238296622 0.6165292966470091 C
atom_frac 0.4446284218661916 0.6987636081895515 0.1165398478065640 C
atom_frac 0.9909055339812836 0.5998808887356831 0.3284816457491219 C
atom_frac 0.5091116283473340 0.4001212562975738 0.8284658566639962 C
atom_frac 0.0091148655326307 0.4001240388344910 0.6715240446799130 C
atom_frac 0.4909047983785868 0.5998815255018926 0.1715352169148119 C
atom_frac 0.1203237670568384 0.6525603508798670 0.2721057454206672 C
atom_frac 0.3797068537152624 0.3474486797483891 0.7720910217829271 C
atom_frac 0.8796850068628074 0.3474349071550975 0.7278966472848794 C
atom_frac 0.6203237418602967 0.6525691520232400 0.2279100517512234 C
atom_frac 0.1933262235091462 0.7971858071727098 0.2738361212710458 C
atom_frac 0.3067043708445637 0.2028232094276419 0.7738206534567594 C
atom_frac 0.8066901916740292 0.2028212833878983 0.7261636332009687 C
atom_frac 0.6933143062813868 0.7971881849864106 0.2261777819033668 C
atom_frac 0.1370437098264929 0.8935307273240840 0.3302462916328395 C
atom_frac 0.3629775032898904 0.1064756958845052 0.8302333742884542 C
atom_frac 0.8629557235221127 0.1064505475041599 0.6697547820024853 C
atom_frac 0.6370400255052431 0.8935400097204752 0.1697696779315336 C
atom_frac 0.2060946896724545 0.0464790710523602 0.3315672833304149 C
atom_frac 0.2939131205135723 0.9535370649586385 0.8315591630538108 C
atom_frac 0.7939067011956663 0.9535140485547303 0.6684351093935277 C
atom_frac 0.7060919156791384 0.0464743588909045 0.1684419105431587 C
atom_frac 0.3465739137584619 0.1102263749223340 0.2847994310836485 C
atom_frac 0.1534252816023169 0.8897718483555651 0.7847880929013157 C
atom_frac 0.6534175045814407 0.8897764608377444 0.7152075785153258 C
atom_frac 0.8465794732828300 0.1102384989131480 0.2152142998003441 C
atom_frac 0.4021967160325416 0.2579711825655409 0.2829122029094079 C
atom_frac 0.0978087312814040 0.7420378143716492 0.7829099411523330 C
atom_frac 0.5977972455425941 0.7420370336207966 0.7170941471276961 C
atom_frac 0.9021923089874661 0.2579800812027245 0.2170904728965013 C
atom_frac 0.3195443005188849 0.3461466257621240 0.3286126410629535 C
atom_frac 0.1804510967744193 0.6538523261478491 0.8286114783844951 C
atom_frac 0.6804454069757992 0.6538583680806910 0.6713884325739059 C
atom_frac 0.8195528142736632 0.3461547914238210 0.1713836592545732 C
atom_frac 0.1893255677555175 0.2762361457971068 0.3774600416535350 C
atom_frac 0.3106719196990467 0.7237645582804076 0.8774568559949998 C
atom_frac 0.8106632842989328 0.7237699270777188 0.6225403724327593 C
atom_frac 0.6893288854785524 0.2762350256926426 0.1225442176215950 C
atom_frac 0.6551569615392907 0.3591544150760342 0.5097115464399593 C
atom_frac 0.8448443489903497 0.6408406647731937 0.0097068151632698 C
atom_frac 0.3448322180843205 0.6408354993831935 0.4902809530406032 C
atom_frac 0.1551539014294221 0.3591578475454327 0.9902909607021328 C
atom_frac 0.4932361834759362 0.2716714354176730 0.5370761195195755 C
atom_frac 0.0067670760030367 0.7283298730760849 0.0370767128983260 C
atom_frac 0.5067510039495745 0.7283195605193883 0.4629176990676669 C
atom_frac 0.9932294866318117 0.2716621797896295 0.9629210629763847 C
atom_frac 0.0104947542019147 0.8403075538825888 0.3856093796568771 N
atom_frac 0.4895276402112286 0.1596844125969100 0.8856116326967083 N
atom_frac 0.9895060278650191 0.1597006475993652 0.6143923535039590 N
atom_frac 0.5104865360693296 0.8403097565639115 0.1143980150648929 N
atom_frac 0.1320040608592521 0.1334123363668668 0.3812659049409888 N
atom_frac 0.3680021811002874 0.8665872406328176 0.8812655155379260 N
atom_frac 0.8679901936114971 0.8665926476632252 0.6187345091341143 N
atom_frac 0.6319997608099897 0.1334123408810370 0.1187368771792521 N
atom_frac 0.7211004782192985 0.2828156726830713 0.4406161819931143 N
atom_frac 0.7788999242117779 0.7171802095999809 0.9406164479192612 N
atom_frac 0.2788872833590331 0.7171731676518432 0.5593769770431153 N
atom_frac 0.2210968966099002 0.2828215373501309 0.0593819874981492 N
atom_frac 0.4868502575008050 0.1309166633032888 0.5778207118625431 N
atom_frac 0.0131398871385073 0.8690800330332138 0.0778243336386524 N
atom_frac 0.5131383479448102 0.8690754067447131 0.4221757449268750 N
atom_frac 0.9868606483195915 0.1309141656219240 0.9221734422253078 N
