#=======================================================
# FHI-aims file: ./geometry.in
# Created using the Atomic Simulation Environment (ASE)
# Fri Jan 14 15:06:03 2022
#=======================================================
lattice_vector 11.0108156489999995 0.0015017620000000 -0.0000727830000000 
lattice_vector 0.0026252990000000 19.3544985609999998 -0.7081320430000000 
lattice_vector -0.0001522390000000 -0.1708637360000000 21.6287832040000012 
atom_frac 0.5725880786681330 0.8100400599619491 0.2520667457724812 Co
atom_frac 0.5726356961368566 0.6900773524503451 0.2479232193964051 Co
atom_frac 0.4273993244353207 0.1899569640424659 0.7479272212337303 Co
atom_frac 0.4273553404384102 0.3099171361404984 0.7520762127742484 Co
atom_frac 0.7340945568963662 0.6910421744451724 0.7490015681232192 Co
atom_frac 0.7340455404963534 0.8091282984360999 0.7509776647099285 Co
atom_frac 0.2659209974929979 0.3089667180217218 0.2509909381668648 Co
atom_frac 0.2659681978606656 0.1908790396134776 0.2490143283351570 Co
atom_frac 0.5936488502565780 0.0850175254495866 0.4679933561708509 H
atom_frac 0.5936494957612054 0.4150888800654895 0.0321229787966146 H
atom_frac 0.4063385527852078 0.9149806710213469 0.5320163690154656 H
atom_frac 0.4063606135893210 0.5849042443804535 0.9678976767313185 H
atom_frac 0.7468196266362669 0.4147180524942228 0.5385665660285637 H
atom_frac 0.7468858420786617 0.0853456111962885 0.9614863733417918 H
atom_frac 0.2531614181880784 0.5852825652823979 0.4614247445361385 H
atom_frac 0.2531397049496675 0.9146535547230243 0.0385164485099807 H
atom_frac 0.6315304616428321 0.6451106336258334 0.0597624685328100 H
atom_frac 0.6317163581943745 0.8550057343146378 0.4401515723671422 H
atom_frac 0.3684905424516032 0.3548956008016475 0.9402216285072239 H
atom_frac 0.3682310835735407 0.1449938687501557 0.5598415542499919 H
atom_frac 0.6909155569201458 0.6362678805640627 0.9473243024266295 H
atom_frac 0.6910819728761126 0.8638731207420846 0.5525977316510688 H
atom_frac 0.3090800171018131 0.3637403945571052 0.0526566249126574 H
atom_frac 0.3089036114566497 0.1361336945010407 0.4473933194887322 H
atom_frac 0.6837706144496208 0.8575101686115190 0.9419563737039524 H
atom_frac 0.6836612367702273 0.6426375410033529 0.5580707837277996 H
atom_frac 0.3162067939256871 0.1425059786980469 0.0580382193706654 H
atom_frac 0.3163742991297269 0.3573667352326098 0.4419257326146492 H
atom_frac 0.6225319438582915 0.8661068859375691 0.0542500859743598 H
atom_frac 0.6224228645780342 0.6340025537209827 0.4457718557026310 H
atom_frac 0.3774645414181136 0.1338896736138864 0.9457498763652834 H
atom_frac 0.3775836092877469 0.3660007319478212 0.5542292515791941 H
atom_frac 0.9591990336116751 0.8567026215184580 0.2813361405313443 H
atom_frac 0.9593089754737604 0.6433602291808708 0.2186846929967458 H
atom_frac 0.0407783803125028 0.1432914982861035 0.7186799240062669 H
atom_frac 0.0406766116586752 0.3566358960476065 0.7813245020235724 H
atom_frac 0.1872108143216806 0.8567030922862032 0.2815688926792461 H
atom_frac 0.1873434545304137 0.6433618203530642 0.2184592961651005 H
atom_frac 0.8127756793230746 0.1432996862733020 0.7184331226261731 H
atom_frac 0.8126384990326372 0.3566367667980259 0.7815361090411840 H
atom_frac 0.3467744958689635 0.6403853953626638 0.7307518184698764 H
atom_frac 0.3466073535428364 0.8598724098696382 0.7691499922365849 H
atom_frac 0.6532292534988714 0.3596173532782386 0.2692469594860469 H
atom_frac 0.6534072944101013 0.1401298864258678 0.2308561684958690 H
atom_frac 0.1186860451314899 0.6403563939496238 0.7310219613694213 H
atom_frac 0.1184852931363736 0.8598416796371993 0.7689313777900110 H
atom_frac 0.8813240604245820 0.3596515469463952 0.2689797606848500 H
atom_frac 0.8815311710732061 0.1401611210940246 0.2310734124233277 H
atom_frac 0.3989573769527652 0.9385650109812858 0.2636855223078171 H
atom_frac 0.3990051031395437 0.5615969763422511 0.2364286426451656 H
atom_frac 0.6010518206171298 0.0614412611076816 0.7363027370472748 H
atom_frac 0.6009859322891559 0.4384015243647639 0.7635570504774236 H
atom_frac 0.3965165130678229 0.0564111579466413 0.3174175515761987 H
atom_frac 0.3965794254897900 0.4437135644334019 0.1827720320576488 H
atom_frac 0.6034954092568582 0.9435946256856197 0.6825739282238813 H
atom_frac 0.6034234167165450 0.5562844797749236 0.8172205813616882 H
atom_frac 0.7662323292040584 0.0205172695320002 0.3729999338652590 H
atom_frac 0.7661848797692696 0.4795166326199761 0.1270287298194219 H
atom_frac 0.2337614357974545 0.9794624309772002 0.6270216691450370 H
atom_frac 0.2338388592588032 0.5204492419358502 0.8730072157259198 H
atom_frac 0.7536774258436978 0.9046253654931891 0.3159955416195784 H
atom_frac 0.7536521426862207 0.5954380177370167 0.1839832391638153 H
atom_frac 0.2463108896428210 0.0953553078465958 0.6840191580202131 H
atom_frac 0.2463679616601198 0.4045349660848174 0.8160386063758692 H
atom_frac 0.6491543722502087 0.1501840191792709 0.3507546999836321 H
atom_frac 0.6491085212936198 0.3498542075152571 0.1493445187516612 H
atom_frac 0.3508729954695866 0.8497976602839113 0.6492572586471537 H
atom_frac 0.3508861528301425 0.6501213134112475 0.8506718616055976 H
atom_frac 0.4960175112145891 0.1446152330956210 0.3746273059228288 H
atom_frac 0.4959783203141086 0.3554840157680771 0.1254784282375993 H
atom_frac 0.5040116690975083 0.8553818652412915 0.6253754482479720 H
atom_frac 0.5040181676064533 0.6445023460968782 0.8745369200203539 H
atom_frac 0.7203527191384609 0.2524343767535341 0.6155348257364607 H
atom_frac 0.7204583831017430 0.2476741954407017 0.8845166318741489 H
atom_frac 0.2796010773705859 0.7475772516124122 0.3844744144068172 H
atom_frac 0.2795489981173063 0.7523327201820890 0.1154859812969562 H
atom_frac 0.6243254725799902 0.2464662695503747 0.3923515263539555 H
atom_frac 0.6242480945263438 0.2535731693166737 0.1076823739514197 H
atom_frac 0.3757100678977779 0.7535189045696739 0.6076466763145233 H
atom_frac 0.3757493035854580 0.7464043329595426 0.8923243620008633 H
atom_frac 0.5863162659941707 0.0977898112406308 0.5717612801439598 H
atom_frac 0.5863593829799072 0.4023377950204504 0.9283236496653938 H
atom_frac 0.4136348052898030 0.9022243892138988 0.4282466571604218 H
atom_frac 0.4136552637285362 0.5976702680081729 0.0716919468086061 H
atom_frac 0.6984942895490107 0.1343467026318592 0.6210916220673254 H
atom_frac 0.6986324868580596 0.3657874635766943 0.8790169328128739 H
atom_frac 0.3014486086659645 0.8656649878221003 0.3789245552749562 H
atom_frac 0.3013939669698971 0.6342185720636806 0.1210032207922396 H
atom_frac 0.7420787624810998 0.0844811482733405 0.5533338471221538 H
atom_frac 0.7420942613941151 0.4155857077741203 0.9468213433452416 H
atom_frac 0.2578823031003736 0.9155166518179670 0.4466892730568971 H
atom_frac 0.2579140305565772 0.5844121458127631 0.0532082516002319 H
atom_frac 0.5894803077823951 0.4116594291146356 0.4580087582029293 H
atom_frac 0.5895053109171046 0.0884070990655985 0.0420239454558882 H
atom_frac 0.4105298017023172 0.5883313585639199 0.5419813059258657 H
atom_frac 0.4105211488907230 0.9115723580199242 0.9579703712299402 H
atom_frac 0.6309015997130133 0.3648850418775211 0.3884644193725180 H
atom_frac 0.6308462774273308 0.1351919979274214 0.1115550365370552 H
atom_frac 0.3691203181519640 0.6350979639281532 0.6115221535874297 H
atom_frac 0.3691701931399010 0.8647838993168619 0.8884456364210603 H
atom_frac 0.7442002938469373 0.4053083684882565 0.4354806240977353 H
atom_frac 0.7441965584778953 0.0947401820192511 0.0645913693030664 H
atom_frac 0.2558143571520120 0.5946803760344253 0.5645121472340404 H
atom_frac 0.2558280828811093 0.9052480898143427 0.9354064724018228 H
atom_frac 0.8547811449363466 0.3612849950683880 0.6311672536749312 H
atom_frac 0.8550482036367910 0.1387060321293702 0.8689367423778973 H
atom_frac 0.1451563058165632 0.6387188536090207 0.3688384952762788 H
atom_frac 0.1450000470740775 0.8612988824301767 0.1310736653120159 H
atom_frac 0.7041480451403145 0.3487986939441042 0.6569637620260449 H
atom_frac 0.7044674323999515 0.1513439637266956 0.8430956384134588 H
atom_frac 0.2957839527388657 0.6512200532627759 0.3430323030576615 H
atom_frac 0.2955790018391228 0.8486608938141417 0.1569082945475059 H
atom_frac 0.9222258257853326 0.4454304611298738 0.7090339091281165 H
atom_frac 0.9224118860751744 0.0545458212793903 0.7910529509861561 H
atom_frac 0.0777270675017050 0.5545593177517105 0.2909584335141631 H
atom_frac 0.0776545300759892 0.9454528940520958 0.2089577161473953 H
atom_frac 0.8983065100936332 0.5631737664667611 0.7611614863387286 H
atom_frac 0.8983633258025919 0.9368522472404807 0.7388612817779786 H
atom_frac 0.1016845260421775 0.4368222195226964 0.2388319843479678 H
atom_frac 0.1016785668409312 0.0631545922137775 0.2611330067719990 H
atom_frac 0.5765470794549259 0.5973834635692229 0.6694411885667221 H
atom_frac 0.5764083520473804 0.9028778826457110 0.8304530376459026 H
atom_frac 0.4234602973021921 0.4026414225312677 0.3305486049035835 H
atom_frac 0.4235990233100821 0.0971514344081399 0.1695119341645394 H
atom_frac 0.5849732407395862 0.4803092776899474 0.6139612589826128 H
atom_frac 0.5849923208720327 0.0199145261021272 0.8859936553437818 H
atom_frac 0.4149978075696694 0.5197176499497758 0.3860253647779571 H
atom_frac 0.4150295882642325 0.9801045676408505 0.1139839275137646 H
atom_frac 0.5895699893780844 0.7592681626129049 0.1298693042209108 C
atom_frac 0.5895595419444106 0.7408357046471392 0.3701133963694615 C
atom_frac 0.4104401188133480 0.2407283550532995 0.8701260333246380 C
atom_frac 0.4104051560185554 0.2591623955974213 0.6298852292653263 C
atom_frac 0.6229997105908751 0.7559651109672456 0.0630399985701331 C
atom_frac 0.6230158710531343 0.7441500563408140 0.4369377489026574 C
atom_frac 0.3769985890159759 0.2440396441545118 0.9369519098572565 C
atom_frac 0.3769569999588426 0.2558511483032362 0.5630614407453578 C
atom_frac 0.6429206384276327 0.6911310491812940 0.0331867414250837 C
atom_frac 0.6429893497326161 0.8089999780481775 0.4667727033330704 C
atom_frac 0.3570912826345989 0.3088798782053530 0.9668021327017013 C
atom_frac 0.3569717139843361 0.1910043407112028 0.5332279752727371 C
atom_frac 0.6760540138928803 0.6862987587915227 0.9712043969041130 C
atom_frac 0.6761164816777097 0.8138350880946489 0.5287570643950231 C
atom_frac 0.3239533668850285 0.3137090434996280 0.0287816008097863 C
atom_frac 0.3238700114208584 0.1861697169370942 0.4712403937890243 C
atom_frac 0.6902361575479006 0.7464908353009675 0.9383054111887074 C
atom_frac 0.6902065392732694 0.7536456328225399 0.5616747249435861 C
atom_frac 0.3097648648983835 0.2535211306643319 0.0616839592515959 C
atom_frac 0.3098044755009468 0.2463575912514885 0.4383194451339916 C
atom_frac 0.6719617808744331 0.8113872507147659 0.9683886523507039 C
atom_frac 0.6718651006734078 0.6887476436291421 0.5316181251576707 C
atom_frac 0.3280383334118467 0.1886247439008173 0.0316039554525887 C
atom_frac 0.3281459142509107 0.3112550840338955 0.4683783404015854 C
atom_frac 0.6381390957134273 0.8161656610440530 0.0303484248960402 C
atom_frac 0.6380604441903088 0.6839510067696608 0.4696549023530067 C
atom_frac 0.3618582956792196 0.1838390818996771 0.9696420960890034 C
atom_frac 0.3619351309148513 0.3160538179716070 0.5303448682412010 C
atom_frac 0.7187953740816652 0.7424817157430467 0.8709323697349374 C
atom_frac 0.7188592481433034 0.7576683534719777 0.6290428560621492 C
atom_frac 0.2811820333405494 0.2575379799343480 0.1290544796175438 C
atom_frac 0.2811753786110174 0.2423394752851138 0.3709463790379600 C
atom_frac 0.8109797922537185 0.7500374331498987 0.2500022546069616 C
atom_frac 0.1890030703228192 0.2499587208697917 0.7500101777748467 C
atom_frac 0.9463167235365121 0.7500372940177016 0.2500054795550851 C
atom_frac 0.0536643243497537 0.2499516123424995 0.7500053284897560 C
atom_frac 0.0102629478954057 0.8103135012534961 0.2676220685873217 C
atom_frac 0.0103248096786857 0.6897520071782210 0.2324058733247368 C
atom_frac 0.9897235485310675 0.1896779643126294 0.7323860491837662 C
atom_frac 0.9896580536991593 0.3102404841543631 0.7676013533242735 C
atom_frac 0.1364425253870465 0.8102949167093667 0.2677379337931143 C
atom_frac 0.1365134582368199 0.6897660363780316 0.2322948693416221 C
atom_frac 0.8635439700121238 0.1897006507952099 0.7322666195016365 C
atom_frac 0.8634639550961294 0.3102294665058734 0.7677022842571116 C
atom_frac 0.2004246612271388 0.7500347935891369 0.2500139840142950 C
atom_frac 0.7995554764102978 0.2499617100710124 0.7499795035844058 C
atom_frac 0.3355408971980935 0.7500474901370138 0.2500060697917944 C
atom_frac 0.6644392402513050 0.2499494813542994 0.7499818849614923 C
atom_frac 0.4951054583456839 0.7501030106586555 0.7499611910511417 C
atom_frac 0.5049064649683502 0.2498986424553422 0.2500306158615472 C
atom_frac 0.3598230140726386 0.7501232486666324 0.7499526138196584 C
atom_frac 0.6401952661855433 0.2498811187304000 0.2500540770802857 C
atom_frac 0.2958105983449002 0.6881331506702750 0.7391054093540744 C
atom_frac 0.2957277554619254 0.8121077893238037 0.7608001299351911 C
atom_frac 0.7042013242762409 0.3118722467874376 0.2609008529020683 C
atom_frac 0.7042868920153110 0.1878965865207362 0.2392074859228187 C
atom_frac 0.1695901697450708 0.6880956660527173 0.7393099640531559 C
atom_frac 0.1694927785198814 0.8121213633679858 0.7606429516273534 C
atom_frac 0.8304199358489440 0.3119123034231136 0.2606949953648439 C
atom_frac 0.8305191448825795 0.1878809658015541 0.2393669089471188 C
atom_frac 0.1056511142669265 0.7500993651140460 0.7499879643010272 C
atom_frac 0.8943562674024150 0.2499060612757943 0.2500215353150991 C
atom_frac 0.9704026788744927 0.7500767406373041 0.7499924452787778 C
atom_frac 0.0296001605626586 0.2499332354603112 0.2500056446091961 C
atom_frac 0.4789886493637355 0.9591640170355117 0.2877609701148244 C
atom_frac 0.4790055791393826 0.5409662275347316 0.2123295767517774 C
atom_frac 0.5210141911152917 0.0408412586419047 0.7122314177178380 C
atom_frac 0.5209927222489910 0.4590313369462535 0.7876671820676151 C
atom_frac 0.4775781576190782 0.0241464514647021 0.3182048463227999 C
atom_frac 0.4776238513805993 0.4759539399578544 0.1819410256072657 C
atom_frac 0.5224301324383022 0.9758572896458443 0.6817893406735179 C
atom_frac 0.5223762669064841 0.5240415652473160 0.8180565904907265 C
atom_frac 0.5818512259278349 0.0482037572683609 0.3490111719551762 C
atom_frac 0.5818512382214250 0.4518655741523432 0.1510876876541190 C
atom_frac 0.4181516184523701 0.9517861728853493 0.6509987449885627 C
atom_frac 0.4181534235874053 0.5481202580048218 0.8489262562479990 C
atom_frac 0.6832792185613100 0.0044170354532653 0.3488489160155551 C
atom_frac 0.6832547254470427 0.4956371764646831 0.1512029717455619 C
atom_frac 0.3167136372891477 0.9955662134942284 0.6511649432718655 C
atom_frac 0.3167699200879284 0.5043353473393354 0.8488253316043382 C
atom_frac 0.6771868431833781 0.9403985105894962 0.3173791859432170 C
atom_frac 0.6771713135360854 0.5596735804469047 0.1826511480203905 C
atom_frac 0.3227969304361906 0.0595857686300718 0.6826342446981568 C
atom_frac 0.3228415233167253 0.4403071073217150 0.8173654015617586 C
atom_frac 0.5860195145020626 0.1198980660248878 0.3784127029943391 C
atom_frac 0.5859847897851437 0.3801592388952741 0.1216844037600993 C
atom_frac 0.4139851462198365 0.8800918231595888 0.6215925891455639 C
atom_frac 0.4140153327829381 0.6198193784764426 0.8783316156470703 C
atom_frac 0.6509478048613814 0.1849914716372254 0.4725095106040058 C
atom_frac 0.6508879337750457 0.3150678293067273 0.0275501859539133 C
atom_frac 0.3490550389672293 0.8150004809058871 0.5274953867378328 C
atom_frac 0.3491094619202784 0.6849200421348769 0.9724605882624359 C
atom_frac 0.6762095957288706 0.1875945741441426 0.5365937989272140 C
atom_frac 0.6762184162930610 0.3124817276176158 0.9634734115569257 C
atom_frac 0.3237632757496485 0.8124051535154491 0.4634136646074224 C
atom_frac 0.3237771609426047 0.6875149504063884 0.0365399627174270 C
atom_frac 0.6996398665993980 0.2516347373012948 0.5662690973867794 C
atom_frac 0.6997147303243451 0.2484502131396411 0.9337856084579170 C
atom_frac 0.3003375444888547 0.7483706546683352 0.4337362398798347 C
atom_frac 0.3002908365371582 0.7515484864986846 0.0662227462227705 C
atom_frac 0.6958156579267865 0.3136884099013812 0.5350862019819757 C
atom_frac 0.6958755672859241 0.1863850603149828 0.9649468342535880 C
atom_frac 0.3041699279686156 0.6863122687653982 0.4649120457944702 C
atom_frac 0.3041399901745052 0.8136115181709015 0.0350554405044576 C
atom_frac 0.6684141419979852 0.3111462875979498 0.4712771499605209 C
atom_frac 0.6683981156455444 0.1889100057248143 0.0287492768526221 C
atom_frac 0.3315932428511985 0.6888450783595983 0.5287198682950133 C
atom_frac 0.3316165363607196 0.8110752312583429 0.9712558630066181 C
atom_frac 0.6470300442788783 0.2470797110653891 0.4413786047660223 C
atom_frac 0.6469652237842852 0.2529691447959834 0.0586580684370475 C
atom_frac 0.3529936885403088 0.7529101317282280 0.5586216001037555 C
atom_frac 0.3530303565624422 0.7470140304491721 0.9413474662030338 C
atom_frac 0.6764316981878055 0.1228038905395366 0.5722897347426965 C
atom_frac 0.6764867355078509 0.3772964778379945 0.9278157154347397 C
atom_frac 0.3235320906491737 0.8771989959351389 0.4277243050378487 C
atom_frac 0.3235251875490093 0.6227080288685229 0.0722066997980733 C
atom_frac 0.6578139548654605 0.3764467489872771 0.4366399993027627 C
atom_frac 0.6578045939097096 0.1236179522896776 0.0633917172855334 C
atom_frac 0.3422043283953685 0.6235440339742837 0.5633496023522468 C
atom_frac 0.3422155080964018 0.8763636297492706 0.9366091418064640 C
atom_frac 0.7609131041672299 0.3815610556715113 0.6281357052442897 C
atom_frac 0.7611372200806699 0.1185107576310998 0.8719189833703350 C
atom_frac 0.2390243442850775 0.6184520305330707 0.3718629485962167 C
atom_frac 0.2389046728738863 0.8814950971668549 0.1280808211040635 C
atom_frac 0.7545235825226301 0.4532798282501388 0.6572892590966574 C
atom_frac 0.7546330496395866 0.0468148169397651 0.8427217483528435 C
atom_frac 0.2454374797167276 0.5467300816806357 0.3427009685877919 C
atom_frac 0.2454061172597903 0.9531966414894625 0.1572689926395441 C
atom_frac 0.8432711888396938 0.4772279286208203 0.6993505654576281 C
atom_frac 0.8433872925658719 0.0228149041493637 0.8006824602939629 C
atom_frac 0.1566980489085097 0.5227747492067039 0.3006398878202318 C
atom_frac 0.1566591407201017 0.9771935017593093 0.1993137289448653 C
atom_frac 0.8305449446773209 0.5422803898855477 0.7286057852300586 C
atom_frac 0.8305926868289788 0.9577890281016225 0.7713966799193057 C
atom_frac 0.1694379164741449 0.4577207854035947 0.2713901670624566 C
atom_frac 0.1694446637866562 0.0422219054777315 0.2285931191895186 C
atom_frac 0.6510243195741197 0.5615583709703458 0.6767285390929983 C
atom_frac 0.6509700409830259 0.9386395679102008 0.8232043368544451 C
atom_frac 0.3489658032034910 0.4384593258281553 0.3232661047550777 C
atom_frac 0.3490482348206926 0.0613815566696942 0.1767691513592665 C
atom_frac 0.6566264850125094 0.4971488034260858 0.6459644380968539 C
atom_frac 0.6566454571657303 0.0030231588921481 0.8540012821846118 C
atom_frac 0.3433481986459626 0.5028678609200058 0.3540301718965039 C
atom_frac 0.3433873510096674 0.9969933866250712 0.1459803784017736 C
atom_frac 0.5772082361466390 0.9180481147796726 0.2865894599605524 N
atom_frac 0.5772055939007004 0.5820705637937635 0.2134491240085268 N
atom_frac 0.4227818923916118 0.0819458856363156 0.7134131926520907 N
atom_frac 0.4227963420138963 0.4179203837493544 0.7865589768543088 N
atom_frac 0.6324172534978841 0.1208970446437333 0.4412956110575832 N
atom_frac 0.6323585636999525 0.3791499003944594 0.0587945334940372 N
atom_frac 0.3675864992883078 0.8790918232094284 0.5587110346811954 N
atom_frac 0.3676424659537290 0.6208333642501955 0.9412211757222547 N
atom_frac 0.7124098426357293 0.3781343241429340 0.5659486605120491 N
atom_frac 0.7125441311086931 0.1219422627040601 0.9340859767358436 N
atom_frac 0.2875539451976720 0.6218714632238475 0.4340428192483187 N
atom_frac 0.2874805082987066 0.8780542905802162 0.0659135231464916 N
atom_frac 0.7359951102271012 0.5838478868257651 0.7176383811531649 N
atom_frac 0.7359566998924976 0.9162956791062978 0.7823113180608700 N
atom_frac 0.2640022807369320 0.4161583616822425 0.2823471033089929 N
atom_frac 0.2640615766708549 0.0837223608540967 0.2176639185490288 N
atom_frac 0.5815851584346773 0.8179206043565798 0.1592881155445767 O
atom_frac 0.5816118569388492 0.6821819516494330 0.3406986496222401 O
atom_frac 0.4184276750143426 0.1820733657180256 0.8407112997230684 O
atom_frac 0.4183646476770734 0.3178155981913307 0.6592962592570399 O
atom_frac 0.5742164780238711 0.7015598873703013 0.1549314539760401 O
atom_frac 0.5741605621550291 0.7985484984511969 0.3450586886178044 O
atom_frac 0.4258008959862920 0.2984355879162663 0.8450629247724559 O
atom_frac 0.4257859718652242 0.2014496154511107 0.6549413244436051 O
atom_frac 0.7387863663582906 0.7992160756261625 0.8451522266004828 O
atom_frac 0.7389515697101032 0.7009423191983543 0.6548308042133327 O
atom_frac 0.2611919484551350 0.2008072785850459 0.1548393660050137 O
atom_frac 0.2610957712005302 0.2990680926979437 0.3451585155022129 O
atom_frac 0.7177328347335744 0.6834257240920039 0.8416066554138124 O
atom_frac 0.7177620894508152 0.8167372495842284 0.6583481800024273 O
atom_frac 0.2822400309067277 0.3165970320602228 0.1583756706555376 O
atom_frac 0.2822679956500097 0.1832731269053838 0.3416369773740868 O
atom_frac 0.7567320207335155 0.8082363076024988 0.2537980548041573 O
atom_frac 0.7567669320733260 0.6918458419899594 0.2461952315612591 O
atom_frac 0.2432571992124011 0.1917598336754622 0.7462129901412947 O
atom_frac 0.2432141148235800 0.3081471948885053 0.7538152493709728 O
atom_frac 0.3897654868175024 0.8083766219068877 0.2506061347030979 O
atom_frac 0.3898277950998690 0.6917238488579116 0.2494014639770582 O
atom_frac 0.6102164671399420 0.1916198244527010 0.7493808781696314 O
atom_frac 0.6101605152701240 0.3082767397752022 0.7505866092299125 O
atom_frac 0.5496692235812900 0.6920155679030129 0.7438078348062971 O
atom_frac 0.5496089992279990 0.8081908999266217 0.7561287993430098 O
atom_frac 0.4503535976741020 0.3079875858468739 0.2561784731119586 O
atom_frac 0.4503974745710480 0.1918117260179670 0.2438561041991675 O
atom_frac 0.9159391871100623 0.6921681834484443 0.7533115932122099 O
atom_frac 0.9158697050713015 0.8079814158520120 0.7466802010143282 O
atom_frac 0.0840572948130287 0.3078423058847192 0.2466860511109701 O
atom_frac 0.0841494805434806 0.1920342195567954 0.2533153001348224 O
