#=======================================================
# FHI-aims file: ./geometry.in
# Created using the Atomic Simulation Environment (ASE)
# Wed Feb  9 14:46:22 2022
#=======================================================
lattice_vector 7.8511538800000000 0.0357772700000000 -0.4051421900000000 
lattice_vector 0.0885393500000000 8.4430912500000002 -0.8844965900000000 
lattice_vector -0.0665754100000000 0.4449189100000000 16.0112596300000014 
atom_frac 0.3214243500000001 0.4142345100000000 0.0880707800000000 K
atom_frac 0.8073196600000001 0.0738871300000000 0.9088726300000000 K
atom_frac 0.6787209800000000 0.5860669900000001 0.9119812100000000 K
atom_frac 0.1928883000000000 0.9263757100000002 0.0910634200000000 K
atom_frac 0.4285226200000001 0.7216508200000001 0.0239103200000000 H
atom_frac 0.9417846800000002 0.7471796900000000 0.9904447600000000 H
atom_frac 0.5716075700000001 0.2785827300000001 0.9760341300000002 H
atom_frac 0.0584141900000000 0.2533104600000001 0.0094610500000000 H
atom_frac 0.6047960900000001 0.6951519299999999 0.0755481500000000 H
atom_frac 0.0989012000000000 0.7760940300000000 0.9338479800000001 H
atom_frac 0.3953686600000000 0.3053838800000000 0.9244181100000000 H
atom_frac 0.9013073000000001 0.2242069800000000 0.0660359200000000 H
atom_frac 0.2584278600000001 0.8364938600000000 0.3075057200000000 H
atom_frac 0.7836243500000000 0.7361285100000000 0.7352040700000001 H
atom_frac 0.7415136900000001 0.1636611400000000 0.6925694700000001 H
atom_frac 0.2162411900000000 0.2635095800000000 0.2648482400000000 H
atom_frac 0.4072618499999999 0.9544595900000001 0.4375575200000000 H
atom_frac 0.8281968800000001 0.5510548500000000 0.6129296300000000 H
atom_frac 0.5925960300000002 0.0457145400000000 0.5625456500000000 H
atom_frac 0.1715223200000000 0.4484476500000000 0.3871605600000000 H
atom_frac 0.6187967900000001 0.7904471900000000 0.5198121000000001 H
atom_frac 0.0273404700000000 0.6146194600000001 0.5026432400000002 H
atom_frac 0.3808675000000001 0.2096676400000000 0.4803743300000001 H
atom_frac 0.9722566500000001 0.3847008900000000 0.4973714800000000 H
atom_frac 0.6856854800000001 0.5169589100000000 0.4638645400000000 H
atom_frac 0.1581455100000000 0.8780840700000001 0.5113793200000001 H
atom_frac 0.3139030400000000 0.4831124700000001 0.5363663700000000 H
atom_frac 0.8415965700000001 0.1211776300000000 0.4885391600000000 H
atom_frac 0.6307881800000000 0.2970273100000000 0.3823865800000000 H
atom_frac 0.2140441500000000 0.1249144600000000 0.5815374800000001 H
atom_frac 0.3690029200000000 0.7030883000000000 0.6177618300000001 H
atom_frac 0.7857515800000001 0.8744446600000001 0.4183091500000000 H
atom_frac 0.4435312000000001 0.0500820800000000 0.2401266000000000 H
atom_frac 0.7915225700000000 0.3894907000000000 0.7815245500000001 H
atom_frac 0.5567861600000001 0.9500174700000000 0.7598103300000000 H
atom_frac 0.2084801000000000 0.6106937099999999 0.2185193200000000 H
atom_frac 0.6260461200000002 0.0743504700000000 0.3116177100000000 H
atom_frac 0.0176870400000000 0.4519547500000000 0.6801000500000001 H
atom_frac 0.3741079900000000 0.9258740100000000 0.6884198300000001 H
atom_frac 0.9823002300000000 0.5474095800000001 0.3196932300000000 H
atom_frac 0.6921272000000002 0.9513671399999999 0.1674840800000000 H
atom_frac 0.1911108300000000 0.5476007100000002 0.8037885800000001 H
atom_frac 0.3087747100000000 0.0493342300000000 0.8326078600000000 H
atom_frac 0.8092745100000001 0.4521114300000000 0.1957750600000000 H
atom_frac 0.8048154100000001 0.1294736000000000 0.1941499500000000 H
atom_frac 0.3169978000000001 0.3702584500000000 0.8003777800000000 H
atom_frac 0.1953541400000000 0.8715846700000000 0.8059907400000001 H
atom_frac 0.6831433800000001 0.6293182700000001 0.1993979700000000 H
atom_frac 0.3875538400000000 0.6113242700000001 0.3127883900000000 C
atom_frac 0.9360150800000000 0.9233419900000001 0.6942575200000001 C
atom_frac 0.6122653200000000 0.3888103400000000 0.6873489100000001 C
atom_frac 0.0638213200000000 0.0762096400000000 0.3056899300000000 C
atom_frac 0.3530104700000001 0.7670784900000001 0.3428940300000001 C
atom_frac 0.8677728700000001 0.7678350100000001 0.6872820300000000 C
atom_frac 0.6468631100000000 0.2330771300000000 0.6572180700000001 C
atom_frac 0.1320586400000000 0.2317236200000000 0.3127401700000000 C
atom_frac 0.4364843000000000 0.8319515400000002 0.4157668400000000 C
atom_frac 0.8970032000000001 0.6629002300000001 0.6195019899999999 C
atom_frac 0.5633324400000002 0.1681997900000000 0.5843624600000000 C
atom_frac 0.1027463300000000 0.3365848600000001 0.3805409700000000 C
atom_frac 0.5562269300000001 0.7430996000000001 0.4606587800000000 C
atom_frac 0.0041345400000000 0.6996955300000001 0.5556531400000000 C
atom_frac 0.4434801900000000 0.2570176200000001 0.5395165600000000 C
atom_frac 0.9955603700000001 0.2996891200000000 0.4443471800000000 C
atom_frac 0.5928412400000002 0.5895886800000001 0.4297449600000001 C
atom_frac 0.0755940300000000 0.8463439700000001 0.5601992100000001 C
atom_frac 0.4068184300000000 0.4105011300000000 0.5704543300000001 C
atom_frac 0.9241609300000001 0.1530082300000000 0.4397444600000001 C
atom_frac 0.5124643200000000 0.5206909600000001 0.3559059600000000 C
atom_frac 0.0416964600000000 0.9595845100000001 0.6268927900000000 C
atom_frac 0.4872663800000001 0.4794176999999999 0.6442713000000000 C
atom_frac 0.9581436400000001 0.0398409900000000 0.3730320000000000 C
atom_frac 0.5574327700000000 0.3567249700000000 0.3320635600000000 C
atom_frac 0.1205645900000000 0.1070155600000000 0.6288203200000000 C
atom_frac 0.4423658500000001 0.6434121600000000 0.6680903400000001 C
atom_frac 0.8793135600000002 0.8923758400000001 0.3710672400000001 C
atom_frac 0.5636596300000001 0.1157666400000000 0.2532068800000000 C
atom_frac 0.0999868500000000 0.3654762200000001 0.7134494800000000 C
atom_frac 0.4365168000000000 0.8845045000000001 0.7468373800000001 C
atom_frac 0.9000746500000001 0.6339759900000002 0.2863717100000001 C
atom_frac 0.6769180200000000 0.0804315500000000 0.1798259300000000 C
atom_frac 0.1855838000000000 0.4176195300000000 0.7955633000000000 C
atom_frac 0.3234468000000000 0.9202219200000000 0.8202623700000001 C
atom_frac 0.8146112900000001 0.5820858100000000 0.2041882100000000 C
atom_frac 0.5952870600000001 0.1454438700000000 0.1013062400000000 C
atom_frac 0.0848759700000000 0.3626058200000000 0.8672633400000000 C
atom_frac 0.4049861800000000 0.8549904599999999 0.8987425100000002 C
atom_frac 0.9153462300000001 0.6376371299999999 0.1326247900000000 C
atom_frac 0.5180060000000000 0.2813429600000000 0.2617424500000001 N
atom_frac 0.1070962500000000 0.2247976800000000 0.6833978500000000 N
atom_frac 0.4819177500000000 0.7188643200000000 0.7383769900000001 N
atom_frac 0.8929424300000001 0.7745965600000000 0.3165090900000000 N
atom_frac 0.3015829700000000 0.5436622400000000 0.2456810100000000 O
atom_frac 0.9054202700000001 1.0255052899999997 0.7535387400000001 O
atom_frac 0.6982818000000001 0.4564777500000000 0.7544360700000001 O
atom_frac 0.0944302600000000 -0.0258527100000000 0.2463631500000000 O
atom_frac 0.4424163300000001 0.1168845400000000 0.0821938500000000 O
atom_frac 0.9247939800000000 0.3572167800000000 0.8579350400000001 O
atom_frac 0.5578648000000002 0.8834541500000000 0.9178876700000000 O
atom_frac 0.0754284900000000 0.6429128800000001 0.1419706200000000 O
atom_frac 0.6872739000000001 0.2306365100000000 0.0591956300000000 O
atom_frac 0.1703443100000000 0.3267510800000000 0.9320146800000000 O
atom_frac 0.3129435300000001 0.7697182700000000 0.9407818000000001 O
atom_frac 0.8298963700000000 0.6739686200000001 0.0679590400000000 O
atom_frac 0.4803981400000000 0.6826197500000000 0.0777147500000000 O
atom_frac 0.9742803600000001 0.7972590100000000 0.9396660700000001 O
atom_frac 0.5198056200000000 0.3176001200000000 0.9222173000000001 O
atom_frac 0.0259182100000000 0.2030257300000000 0.0601781700000000 O
