#=======================================================
# FHI-aims file: ./geometry.in
# Created using the Atomic Simulation Environment (ASE)
# Wed Feb  9 14:46:20 2022
#=======================================================
lattice_vector 4.3601185200000003 -0.1673895800000000 -0.6678607100000000 
lattice_vector -1.3615112599999999 6.2382568599999999 0.0373745800000000 
lattice_vector 0.0888184600000000 0.1114761200000000 8.1197477599999992 
atom_frac 0.4843617300000000 0.9841780100000003 0.4952604700000000 Mn
    initial_moment         2.000000
atom_frac 0.0088930800000000 0.5003241300000001 1.0004487999999998 Mn
    initial_moment        -4.000000
atom_frac 0.3240495000000000 0.8810437100000001 0.8504234599999999 H
atom_frac 0.6843499499999999 0.1239178600000000 0.1519264400000000 H
atom_frac 0.5655399500000000 0.7992189600000000 0.9903936100000000 H
atom_frac 0.4498129399999999 0.2055122200000000 0.0078715800000000 H
atom_frac 0.0898296200000000 0.3556714600000001 0.6054768499999998 C
atom_frac 0.8989282399999999 0.6446655999999999 0.3955540600000000 C
atom_frac 0.3984835900000000 0.3494576100000000 0.3137618000000000 C
atom_frac 0.5934509800000000 0.6456327700000001 0.6897209299999999 C
atom_frac 0.7128794899999998 0.4348272600000000 0.4105817000000000 C
atom_frac 0.2808511200000000 0.5633453400000000 0.5929261299999999 C
atom_frac 0.2023703800000000 0.2108784600000000 0.7323848199999999 C
atom_frac 0.7978054600000000 0.7887999700000001 0.2636222000000000 C
atom_frac 0.8102206000000000 0.2872355400000001 0.5114944700000000 N
atom_frac 0.1882219500000000 0.7141527800000002 0.4882426499999999 N
atom_frac 0.2738993500000000 0.4747322200000000 0.2224342200000000 O
atom_frac 0.7231304600000000 0.5283014500000001 0.7863400399999999 O
atom_frac 0.2621610200000000 0.1530852900000000 0.3403165500000000 O
atom_frac 0.7258884000000000 0.8410360700000000 0.6575255100000000 O
atom_frac 0.3554720800000000 0.0782901200000000 0.6940221000000000 O
atom_frac 0.6472218600000000 0.9269809600000000 0.2960947000000000 O
atom_frac 0.1405283700000000 0.2295912500000001 0.8766678199999999 O
atom_frac 0.8718605800000000 0.7707535300000000 0.1221026200000000 O
atom_frac 0.3446796600000000 0.7643224700000001 0.9302333399999999 O
atom_frac 0.6650989700000000 0.2440391200000000 0.0741699200000000 O
