#=======================================================
# FHI-aims file: ./geometry.in
# Created using the Atomic Simulation Environment (ASE)
# Fri Jan 14 15:06:22 2022
#=======================================================
lattice_vector 7.2260028470000002 0.0381678490000000 -1.1759201690000001 
lattice_vector -3.2630902540000002 6.4472791230000004 -1.1759680710000000 
lattice_vector -0.0106951730000000 -0.0175783490000000 9.5473626459999998 
atom_frac 0.9086130102683044 0.9086081877565063 0.3066501913664865 Cu
atom_frac 0.0913825600957594 0.0913812027221184 0.6933527318118209 Cu
atom_frac 0.0000082015233644 0.0000043348155572 0.9999949824825619 Cu
atom_frac 0.3794399149533235 0.5791850654001323 0.1393865764159941 H
atom_frac 0.4208266428539247 0.6205712699119131 0.8606178314200008 H
atom_frac 0.6205668176882639 0.4208259760365108 0.8606172461502338 H
atom_frac 0.5791842195011795 0.3794366510434130 0.1393882102540331 H
atom_frac 0.4234996117791638 0.7558066516169006 0.3089320406658516 H
atom_frac 0.2442011619885989 0.5765017021967793 0.6910786686311210 H
atom_frac 0.5764988237242152 0.2441982527698273 0.6910783833310958 H
atom_frac 0.7558000225697940 0.4235000894210685 0.3089338053720070 H
atom_frac 0.2636627108085817 0.4640480623606749 0.4204503539917823 H
atom_frac 0.5359425926666361 0.7363248255491965 0.5795454089293981 H
atom_frac 0.7363273255848456 0.5359413476042434 0.5795477003453443 H
atom_frac 0.4640391418455394 0.2636615276646168 0.4204512463835356 H
atom_frac 0.0891981958338661 0.4207508089892470 0.2504450248090250 H
atom_frac 0.5792499738027032 0.9108039220753453 0.7495492026154124 H
atom_frac 0.9108022440834632 0.5792493895181180 0.7495504026974373 H
atom_frac 0.4207456191764152 0.0891947462309588 0.2504433446108009 H
atom_frac 0.4110820131931519 0.6035853299635221 0.2595928109661187 C
atom_frac 0.3964210153735336 0.5889173744464741 0.7404125891416767 C
atom_frac 0.5889170895034895 0.3964180048497922 0.7404122648311142 C
atom_frac 0.6035801219875907 0.4110781997564531 0.2595949235979660 C
atom_frac 0.2412824694336990 0.4339451825869673 0.3006510497139629 C
atom_frac 0.5660523056062203 0.7587151409873626 0.6993425672852280 C
atom_frac 0.7587144891077813 0.5660503778220300 0.6993423303081413 C
atom_frac 0.4339356725240791 0.2412789208804824 0.3006505694777458 C
atom_frac 0.8631327624089237 0.1368678608203453 0.5000027374169279 Br
atom_frac 0.1368710862377539 0.8631214777019236 0.4999991041538294 Br
atom_frac 0.7229136322572812 0.9969807392436536 0.1129323643970536 Br
atom_frac 0.0030436099065980 0.2771102454244598 0.8870723944470881 Br
atom_frac 0.2771097315049075 0.0030426132240677 0.8870718807203772 Br
atom_frac 0.9969603444130046 0.7229007943918689 0.1129248012638868 Br
atom_frac 0.6092630337447672 0.6092666154794770 0.3155125543910060 O
atom_frac 0.3907332831109615 0.3907305400707061 0.6844956068088096 O
atom_frac 0.2357563209579537 0.2357577358472582 0.2465669598941673 O
atom_frac 0.7642385472192644 0.7642393592346222 0.7534158775960478 O
