#=======================================================
# FHI-aims file: ./geometry.in
# Created using the Atomic Simulation Environment (ASE)
# Fri Jan 14 15:03:51 2022
#=======================================================
lattice_vector 5.3399932400000001 0.1122184530000000 -0.6049942540000000 
lattice_vector -1.6368558490000000 9.0949243039999992 -0.9154676960000000 
lattice_vector 0.1166934370000000 -0.2419569650000000 11.8417437739999993 
atom_frac 0.0000229914133172 0.0000462073826881 0.9996522840690149 Mn
atom_frac 0.1820548675940187 0.2978651142420857 0.8984266373015261 H
atom_frac 0.3712548561449081 0.5560052520201564 0.8953547808598331 H
atom_frac 0.3293512331761477 0.8952715261529890 0.7936785277854669 H
atom_frac 0.3176759640044509 0.8777532183465480 0.5848485646614776 H
atom_frac 0.7317829976733208 0.1303550466500809 0.7953845753415082 H
atom_frac 0.6972036844302777 0.1291247926874206 0.5855145941115013 H
atom_frac 0.8179083601366272 0.7021502530930589 0.1015792737609473 H
atom_frac 0.6287124862031277 0.4439801418781003 0.1046422674544374 H
atom_frac 0.6706296273183980 0.1047300894549394 0.2063559329961393 H
atom_frac 0.6822994199147699 0.1222293220291704 0.4151689411801058 H
atom_frac 0.2682085494428675 0.8696387839449499 0.2046515185118167 H
atom_frac 0.3027382753637652 0.8708716294445934 0.4145132553836959 H
atom_frac 0.1009458100599616 0.3863179549283516 0.9424425537459130 C
atom_frac 0.5601321222557586 0.1713842304018272 0.0262185576641087 C
atom_frac 0.2069593505398756 0.5316942072532385 0.9408004683600454 C
atom_frac 0.0051700953872071 0.0022482859578403 0.5629437892250451 C
atom_frac 0.8918693539085679 0.3520070252185974 0.0017005008021087 C
atom_frac 0.1885259287217308 0.9439542926078129 0.7443428040000768 C
atom_frac 0.1817942719580400 0.9356992325361870 0.6260384494030830 C
atom_frac 0.8575190263625669 0.0754119434716216 0.7444521220887809 C
atom_frac 0.8399276568156963 0.0735854348519211 0.6263483348573474 C
atom_frac 0.8990607351458522 0.6136995896307199 0.0575826281271858 C
atom_frac 0.4399982809282290 0.8286046996161714 0.9738217180735874 C
atom_frac 0.7930506049147964 0.4683101459581067 0.0592264013496262 C
atom_frac 0.9947854347150550 0.9977298180947968 0.4370630701477368 C
atom_frac 0.1081491889042994 0.6480002912215285 0.9983177475457623 C
atom_frac 0.8114772931712082 0.0560281891274954 0.2556854087215967 C
atom_frac 0.8181666397096876 0.0642740913325781 0.3739978718225175 C
atom_frac 0.1424296218427514 0.9245875303179789 0.2555695492744548 C
atom_frac 0.1600128776035631 0.9263947464025222 0.3736883198999550 C
atom_frac 0.0295532923937216 0.0126562060220934 0.8039184178899391 N
atom_frac 0.3540314802860535 0.1308215575962279 0.0502197930117063 N
atom_frac 0.7867018435923754 0.2030188180937458 0.0015426161026753 N
atom_frac 0.9704548790727684 0.9873634103283634 0.1960614058438637 N
atom_frac 0.6460840086673088 0.8692311484288169 0.9498550521152821 N
atom_frac 0.2133509623371309 0.7969660831421023 0.9983928917784725 N
