#=======================================================
# FHI-aims file: ./geometry.in
# Created using the Atomic Simulation Environment (ASE)
# Fri Jan 14 15:05:17 2022
#=======================================================
lattice_vector 15.5339766469999994 0.0000245940000000 0.0000329110000000 
lattice_vector 0.0000409460000000 14.5132921960000001 8.3793434290000004 
lattice_vector -0.0000053960000000 -14.5132300129999994 8.3792357570000000 
atom_frac 0.7500030296303279 0.5347309722440343 0.2673371322943224 Mn
atom_frac 0.7500045077937330 0.7327075284733980 0.4652807744730579 Mn
atom_frac 0.7499774016827772 0.7326536838951655 0.2673750387966506 Mn
atom_frac 0.2499955415024502 0.4652462331538771 0.7326770583609629 Mn
atom_frac 0.2499831194504551 0.2673207615893816 0.5347300679543634 Mn
atom_frac 0.2499883381738641 0.2673393605715758 0.7327080459797768 Mn
atom_frac 0.5549270479730595 0.4039769079291773 0.0639808335054822 H
atom_frac 0.5548988767160311 0.6599834304979738 0.5960035092650243 H
atom_frac 0.5549244539607728 0.9360198047987893 0.3400561123663692 H
atom_frac 0.0548900431486885 0.5959621219894442 0.9360062337590375 H
atom_frac 0.0548879579664074 0.3400244074026232 0.4039827745490641 H
atom_frac 0.0549035807375731 0.0639957883405770 0.6600047623594988 H
atom_frac 0.4451185479890967 0.3399864214251878 0.9360068855722400 H
atom_frac 0.4451087907089287 0.0639832281932867 0.4040222767892416 H
atom_frac 0.4450907398225894 0.5959790489698874 0.6599626009080166 H
atom_frac 0.9450840345897474 0.6599534230206530 0.0639774954723434 H
atom_frac 0.9450854229388740 0.9360339608607405 0.5960339369687941 H
atom_frac 0.9450751488252251 0.4040255864050409 0.3400190466846168 H
atom_frac 0.4451101482607028 0.5959618063692602 0.9360038232952946 H
atom_frac 0.4451112818364180 0.3400212681184485 0.4039796074941718 H
atom_frac 0.4450953608277287 0.0640017843904914 0.6600079745184074 H
atom_frac 0.9450750530582752 0.4039804249575099 0.0639829446109985 H
atom_frac 0.9451003130712933 0.6599846281166037 0.5960067461739198 H
atom_frac 0.9450763215715624 0.9360129931548045 0.3400506508678303 H
atom_frac 0.5549160732409318 0.6599533264113832 0.0639767376872484 H
atom_frac 0.5549148865866869 0.9360354697576126 0.5960375407983349 H
atom_frac 0.5549264999833454 0.4040243886380210 0.3400158097167888 H
atom_frac 0.0548829928697430 0.3399880228174083 0.9360092037343575 H
atom_frac 0.0548925481098621 0.0639788377110476 0.4040234262694041 H
atom_frac 0.0549111909664006 0.5959809947149636 0.6599645744928820 H
atom_frac 0.7500002360818314 0.3794261899559146 0.3129214932225963 H
atom_frac 0.7500008136660056 0.9335189870142671 0.6205684238797673 H
atom_frac 0.7500006270288253 0.6870846959140664 0.0665068630381710 H
atom_frac 0.2500002661904546 0.6205886346313817 0.6870586580311054 H
atom_frac 0.2500003323932489 0.0664780781232395 0.3793829434252272 H
atom_frac 0.2500018065145468 0.3129244747105062 0.9334896830796708 H
atom_frac 0.2500004392539097 0.0664848377999406 0.6870641488609478 H
atom_frac 0.2500009702888875 0.3129257709760295 0.3794020554642471 H
atom_frac 0.2500016392855855 0.6205925737728749 0.9334984351683387 H
atom_frac 0.7500013505389447 0.9335241729412900 0.3129301702922972 H
atom_frac 0.7500021069976768 0.6870822623581034 0.6205657922996008 H
atom_frac 0.7500007941705532 0.3794495889726903 0.0664973409136208 H
atom_frac 0.7500006649062811 0.2060279739615822 0.2316364192643121 H
atom_frac 0.7500013357143587 0.0256451311466889 0.7939716876910125 H
atom_frac 0.7500013719599893 0.7683403416456899 0.9743714057549723 H
atom_frac 0.2499998373495275 0.7939915386247095 0.7683318833725962 H
atom_frac 0.2499985228124188 0.9743641022599406 0.2059794454561582 H
atom_frac 0.2500010616148316 0.2316563409430756 0.0256209205914928 H
atom_frac 0.2500012931521596 0.9743671723177132 0.7683438915100637 H
atom_frac 0.2499998367759559 0.2316543141652402 0.2059950056439702 H
atom_frac 0.2500008668545632 0.7939920694490252 0.0256204203618822 H
atom_frac 0.7500011404011246 0.0256379812358745 0.2316507045990761 H
atom_frac 0.7500025967645243 0.7683515169637758 0.7939678837982524 H
atom_frac 0.7500022103479084 0.2060495708066981 0.9743603636727086 H
atom_frac 0.6284557758229212 0.5723574810062216 0.1447470216326393 C
atom_frac 0.6284784052556772 0.5723921298615267 0.4276415162310271 C
atom_frac 0.6284589908203271 0.8552881572363873 0.4276554832047023 C
atom_frac 0.1284453525232720 0.4276001806189457 0.8552685730365752 C
atom_frac 0.1284671416878709 0.4276261702485868 0.5723623694762877 C
atom_frac 0.1284620936391150 0.1447276010230284 0.5723927144011965 C
atom_frac 0.3715530953418594 0.4276079253475231 0.8552622602103239 C
atom_frac 0.3715370052110387 0.1447317161157926 0.5723924182388769 C
atom_frac 0.3715330407551177 0.4276312265849996 0.5723623255198830 C
atom_frac 0.8715403436188965 0.5723722264110194 0.1447456423938506 C
atom_frac 0.8715429149382744 0.8552744138958419 0.4276455968657585 C
atom_frac 0.8715282105941637 0.5723875894348894 0.4276415218141025 C
atom_frac 0.5613159245572206 0.5352726401254628 0.0705957278118915 C
atom_frac 0.5613128425960738 0.5353139926544301 0.4646989120194504 C
atom_frac 0.5613163100378245 0.9294204567883640 0.4647438551777227 C
atom_frac 0.0612854010463337 0.4646695895930293 0.9293952499567695 C
atom_frac 0.0613020015932548 0.4646908256450785 0.5352843739188486 C
atom_frac 0.0612985341501542 0.0705955124886870 0.5353201734618480 C
atom_frac 0.4387174091660243 0.4646706632228330 0.9293962741578453 C
atom_frac 0.4387028609957397 0.0706034269222329 0.5353239042901022 C
atom_frac 0.4386979597006970 0.4646921087413672 0.5352780282347779 C
atom_frac 0.9386822701544588 0.5352759408867769 0.0705969119632641 C
atom_frac 0.9386839431616779 0.9294121678959826 0.4647327606014357 C
atom_frac 0.9386875569502491 0.5353162351213357 0.4647059281510123 C
atom_frac 0.5304277294442982 0.4451625635337066 0.0351622212400357 C
atom_frac 0.5304088594538426 0.5899882548727079 0.5548141228960546 C
atom_frac 0.5304200523432385 0.9648425304974920 0.4100523872396591 C
atom_frac 0.0303954680104326 0.5547783942364146 0.9648266908595954 C
atom_frac 0.0303956690600558 0.4100227290028399 0.4451704007160017 C
atom_frac 0.0304057199441772 0.0351718223516498 0.5900099202578274 C
atom_frac 0.4696104921891546 0.4099877035943392 0.9648274626729858 C
atom_frac 0.4696009996646707 0.0351721282343717 0.4452106745224781 C
atom_frac 0.4695925989864448 0.5548092251924004 0.5899699749638430 C
atom_frac 0.9695795465547619 0.5899512893815596 0.0351623511502125 C
atom_frac 0.9695806701410277 0.9648470330046662 0.5548517286017184 C
atom_frac 0.9695787708207463 0.4451984158477559 0.4100168284306703 C
atom_frac 0.4696056042857676 0.5547777562745042 0.9648267971768262 C
atom_frac 0.4696064490780145 0.4100247548089158 0.4451690366547537 C
atom_frac 0.4695952562060697 0.0351739405300150 0.5900072704802781 C
atom_frac 0.9695728469562468 0.4451608922236829 0.0351633611740353 C
atom_frac 0.9695848769773717 0.5899850455494897 0.5548144138891188 C
atom_frac 0.9695825511096033 0.9648412712214807 0.4100566953448631 C
atom_frac 0.5304183352955719 0.5899499771967385 0.0351582276813148 C
atom_frac 0.5304168838729735 0.9648488889923142 0.5548480172085274 C
atom_frac 0.5304214220570885 0.4451999025670119 0.4100182599903659 C
atom_frac 0.0303874809122746 0.4099879047695793 0.9648289866248658 C
atom_frac 0.0303998759073494 0.0351665221530482 0.4452084583094943 C
atom_frac 0.0304082127183420 0.5548101828522292 0.5899743225484925 C
atom_frac 0.7499971007868639 0.3378979079350941 0.2380482850897607 C
atom_frac 0.7500002722341179 0.9001758910549995 0.6621072064299367 C
atom_frac 0.7500004412536682 0.7619564184153093 0.0998409441104329 C
atom_frac 0.2500008264649338 0.6621245387185297 0.7619325979936207 C
atom_frac 0.2500002300555053 0.0998293681114220 0.3378502878585081 C
atom_frac 0.2500039235634333 0.2380434323332706 0.9001517943067084 C
atom_frac 0.2499997336438042 0.0998197352754104 0.7619343952771159 C
atom_frac 0.2500017969868508 0.2380454538584686 0.3378634095876265 C
atom_frac 0.2500040932126666 0.6621302856834818 0.9001494804977240 C
atom_frac 0.7500007686723009 0.9001797034011433 0.2380551749537217 C
atom_frac 0.7500038553195194 0.7619554618047815 0.6621055887971463 C
atom_frac 0.7499989839956667 0.3379103638739381 0.0998406482317336 C
atom_frac 0.7500005561123756 0.2421896929935414 0.1928439240804067 C
atom_frac 0.7500001723445775 0.9506831936214014 0.7578059060944112 C
atom_frac 0.7500015920916780 0.8071462026905820 0.0493278980239537 C
atom_frac 0.2500005898778994 0.7578368877745872 0.8071328248227017 C
atom_frac 0.2499971112147320 0.0493135270166647 0.2421458057296135 C
atom_frac 0.2500021289660239 0.1928571607353362 0.9506649079520242 C
atom_frac 0.2500018137174679 0.0493156018065831 0.8071296242733366 C
atom_frac 0.2499999515972178 0.1928589781377639 0.2421545615749281 C
atom_frac 0.2500025709965072 0.7578332230272906 0.9506650923217063 C
atom_frac 0.7500006198357810 0.9506887275812589 0.1928586354545698 C
atom_frac 0.7500037694401558 0.8071477266333745 0.7578050673563723 C
atom_frac 0.7500024374674084 0.2422044677245978 0.0493172544073630 C
atom_frac 0.7500000099576665 0.1924281684556846 0.0962001346211778 C
atom_frac 0.7499996694560452 0.9038021711323622 0.8075744291254663 C
atom_frac 0.7499987786120457 0.9037970608080101 0.0962032072537936 C
atom_frac 0.2499992048033093 0.8075897814678896 0.9037721175560947 C
atom_frac 0.2499982578069648 0.0962140134107727 0.1923912344761617 C
atom_frac 0.2500017236780608 0.0962120669894092 0.9037850277155143 C
atom_frac 0.7499996172089496 0.0904868209296836 0.0452290852513357 C
atom_frac 0.7499989267899991 0.9547616983256190 0.9095076656952938 C
atom_frac 0.7500018453237872 0.9547602413941904 0.0452334046545672 C
atom_frac 0.2499995975770020 0.9095217843833299 0.9547441576727564 C
atom_frac 0.2500002879921935 0.0452484449137245 0.0904664261352224 C
atom_frac 0.2500018757229370 0.0452462473643818 0.9547515022435461 C
atom_frac 0.7499943856706041 0.3850535772820862 0.1925114892459731 N
atom_frac 0.7500030751507082 0.8074951782599271 0.6149493880086465 N
atom_frac 0.7499952034239925 0.8074922521021860 0.1925367022808969 N
atom_frac 0.2500041853327346 0.6149686847445821 0.8074719653167293 N
atom_frac 0.2499993583942056 0.1925086105473142 0.3850107700765548 N
atom_frac 0.2499995051332320 0.1925131470234264 0.8074767431035781 N
atom_frac 0.7500042541898111 0.0474257324618108 0.0948163818253818 N
atom_frac 0.7499968271543908 0.0474229710563634 0.9525799473157831 N
atom_frac 0.7499977849247585 0.9051879539360072 0.9525850345398366 N
atom_frac 0.2500059043239631 0.9525930415967494 0.9051622067209093 N
atom_frac 0.2499940188572225 0.9525946096404425 0.0473974478309173 N
atom_frac 0.2500052923481775 0.0948268706440558 0.0473951167109945 N
atom_frac 0.7499956234381600 0.6667052399542610 0.3333493920456903 O
atom_frac 0.2499971539248236 0.3332831116397300 0.6666966156384502 O
atom_frac 0.6549108395794077 0.5188635196883168 0.1729576376664780 O
atom_frac 0.6549427776635143 0.6541047215945142 0.4811560936257563 O
atom_frac 0.6549184559826954 0.8270852977420519 0.3459523965177452 O
atom_frac 0.1549020458673240 0.4811172895485640 0.8270763711919926 O
atom_frac 0.1549319076936655 0.3459102434679123 0.5188342113154574 O
atom_frac 0.1549150293748625 0.1729317392957199 0.6540847670600199 O
atom_frac 0.3450816504596048 0.3459027162357202 0.8270719659445405 O
atom_frac 0.3450826431176707 0.1729165904163210 0.5188505579023825 O
atom_frac 0.3450857401937669 0.4811194947175821 0.6540588336685998 O
atom_frac 0.8450807188582131 0.6540721397259547 0.1729450206999130 O
atom_frac 0.8450848761833214 0.8270650386842178 0.4811656226272447 O
atom_frac 0.8450573165451374 0.5188793418739337 0.3459270115561566 O
atom_frac 0.3450999628075522 0.4811149894964045 0.8270695702523410 O
atom_frac 0.3450718871199143 0.3459082633489244 0.5188318643711297 O
atom_frac 0.3450704587992206 0.1729323981630984 0.6540857481660395 O
atom_frac 0.8450868690104016 0.5188648180383808 0.1729675266107762 O
atom_frac 0.8450705258212778 0.6541087333300909 0.4811549153554750 O
atom_frac 0.8450931979615247 0.8270662832831163 0.3459467957492776 O
atom_frac 0.6549040456706408 0.6540756331344326 0.1729530150369953 O
atom_frac 0.6549191467440423 0.8270693381350965 0.4811668437372843 O
atom_frac 0.6549366496114715 0.5188862802279245 0.3459315606834749 O
atom_frac 0.1549127022842214 0.3459015282709073 0.8270739008483756 O
atom_frac 0.1549188449644561 0.1729074358676500 0.5188521054883920 O
atom_frac 0.1549200107626802 0.4811202139203489 0.6540564745151869 O
