#=======================================================
# FHI-aims file: ./geometry.in
# Created using the Atomic Simulation Environment (ASE)
# Tue Nov 30 12:20:16 2021
#=======================================================
lattice_vector 3.6453845989999998 -0.0011265490000000 0.0020942850000000 
lattice_vector -1.8259173740000001 11.1419430039999998 -0.1378759150000000 
lattice_vector 0.0084718400000000 -0.0291416030000000 13.4727978549999996 
atom_frac 0.8983472017727578 0.0000359739362352 0.7500887101278266 Cu
atom_frac 0.1016743334280438 0.9999626959485047 0.2499115531069052 Cu
atom_frac 0.2059874467210037 0.3868752809173658 0.8544579612062717 H
atom_frac 0.8191543029193653 0.6129915083543198 0.6455935371511784 H
atom_frac 0.7940130439418454 0.6131251741497368 0.1455393546233594 H
atom_frac 0.1808297247280848 0.3870089528203167 0.3544067502453600 H
atom_frac 0.6459899971529596 0.8354687626170904 0.9212806624521689 C
atom_frac 0.8133013273265918 0.1643383682444509 0.5786403909584267 C
atom_frac 0.3540251055420498 0.1645334986954197 0.0787203807722108 C
atom_frac 0.1867000602029806 0.8356638878041527 0.4213591698713942 C
atom_frac 0.6468318236441420 0.7589704840857365 0.0019624060310335 C
atom_frac 0.8899356704003054 0.2408578181992098 0.4979659596580248 C
atom_frac 0.3531695661433432 0.2410317661390167 0.9980349280298525 C
atom_frac 0.1100497503890665 0.7591399543977957 0.5020357844806540 C
atom_frac 0.5707941772294378 0.6294596641124601 0.9982523352764756 C
atom_frac 0.9423049522596971 0.3704905963683062 0.5018102659602518 C
atom_frac 0.4292090545096487 0.3705407970547656 0.0017472068984787 C
atom_frac 0.0576777289587156 0.6295071662460076 0.4981877673204805 C
atom_frac 0.4083095047991139 0.5595305921808278 0.9161468025229381 C
atom_frac 0.8492536530190975 0.4403336425578672 0.5838945191155530 C
atom_frac 0.5916946290751499 0.4404716563789040 0.0838497888580250 C
atom_frac 0.1507239888354449 0.5596650229065860 0.4161057508969677 C
atom_frac 0.3404914945937280 0.4356241993495830 0.9184951137865695 C
atom_frac 0.9049243375909130 0.5642773283812162 0.5815187882886831 C
atom_frac 0.6595062504770725 0.5643762612651103 0.0815044292356006 C
atom_frac 0.0950564986653505 0.4357222310557561 0.4184800059032270 C
atom_frac 0.7428978625179499 0.8203631198786356 0.0916975441353500 C
atom_frac 0.9229271639080140 0.1795220573352267 0.4081727458978719 C
atom_frac 0.2571049174009091 0.1796364495336249 0.9083042156929082 C
atom_frac 0.0770664891416929 0.8204757102667202 0.5918267702010381 C
atom_frac 0.6562095738224870 0.9071109150069249 0.8585272771129054 N
atom_frac 0.7502402236971263 0.0928787624007512 0.6415122248936312 N
atom_frac 0.3437977506903209 0.0928922372317516 0.1414715497290047 N
atom_frac 0.2497708314317678 0.9071154245849158 0.3584902208027357 N
atom_frac 0.8097488249573246 0.8765330964738143 0.1653848726795317 N
atom_frac 0.9311943667654033 0.1231791849699135 0.3344504463688693 N
atom_frac 0.1902576441331831 0.1234628812344027 0.8346161075826899 N
atom_frac 0.0688175392699649 0.8768221881939411 0.6655542994450484 N
atom_frac 0.2807069879603787 0.6279224910364435 0.8108811269302975 Cl
atom_frac 0.6512951913272218 0.3720102842562484 0.6891751335180629 Cl
atom_frac 0.7193194901679973 0.3720860580392085 0.1891214633452591 Cl
atom_frac 0.3486980114075352 0.6279865877081648 0.3108251157215278 Cl
