#=======================================================
# FHI-aims file: ./geometry.in
# Created using the Atomic Simulation Environment (ASE)
# Wed Feb  9 14:46:21 2022
#=======================================================
lattice_vector 6.9331388799999996 0.0658145700000000 -1.0741796299999999 
lattice_vector -3.1046178599999998 6.1991059999999996 -1.0743376400000000 
lattice_vector -0.0170665200000000 -0.0282654500000000 9.5341414899999997 
atom_frac 0.9063606600000000 0.9063617900000001 0.3128098100000000 Cu
    initial_moment         1.000000
atom_frac 0.0902377700000000 0.0902315100000000 0.6858978799999998 Cu
    initial_moment        -1.000000
atom_frac 0.0150223200000000 0.0150594200000000 1.0174823000000000 Cu
    initial_moment         1.000000
atom_frac 0.3686866200000000 0.5732861000000000 0.1396549300000000 H
atom_frac 0.4272650100000000 0.6309502900000000 0.8591077899999998 H
atom_frac 0.6309718300000000 0.4272633000000001 0.8590955700000000 H
atom_frac 0.5732924700000001 0.3687206800000001 0.1396296100000000 H
atom_frac 0.4196852900000001 0.7676190600000001 0.3055351100000000 H
atom_frac 0.2321553900000001 0.5802484400000001 0.6938993900000000 H
atom_frac 0.5802962000000000 0.2321631300000000 0.6938722899999999 H
atom_frac 0.7676232399999999 0.4197186800000000 0.3054948299999999 H
atom_frac 0.2668879500000000 0.4673029800000000 0.4295408999999999 H
atom_frac 0.5304953000000001 0.7325618299999999 0.5688447299999999 H
atom_frac 0.7325259800000000 0.5305353000000000 0.5688290300000000 H
atom_frac 0.4673533700000000 0.2668120199999999 0.4295022499999999 H
atom_frac 0.0722731300000000 0.4194112300000000 0.2656178599999999 H
atom_frac 0.5798025800000000 0.9266827000000000 0.7334902699999999 H
atom_frac 0.9266692800000002 0.5798741900000000 0.7334547300000001 H
atom_frac 0.4194631600000001 0.0722415900000000 0.2655407399999999 H
atom_frac 0.4049394700000001 0.6057525400000000 0.2605805500000000 C
atom_frac 0.3940493700000000 0.5945875900000001 0.7381807700000000 C
atom_frac 0.5946111800000001 0.3940543800000000 0.7381691999999999 C
atom_frac 0.6057577100000001 0.4049566599999999 0.2605551899999999 C
atom_frac 0.2347512300000000 0.4351072300000000 0.3089620200000000 C
atom_frac 0.5647396099999999 0.7645291300000000 0.6895487299999999 C
atom_frac 0.7645095500000001 0.5647846000000000 0.6895339500000000 C
atom_frac 0.4351484100000000 0.2347149100000000 0.3089233000000000 C
atom_frac 0.8565395000000001 0.1448602000000000 0.5011811999999999 Br
atom_frac 0.1448304000000001 0.8564938200000001 0.5011585400000000 Br
atom_frac 0.7178636100000001 0.9982094200000001 0.1137538100000000 Br
atom_frac 0.0005709100000000 0.2778367200000000 0.8861663999999999 Br
atom_frac 0.2778218400000000 0.0006121100000000 0.8861698499999999 Br
atom_frac 0.9982111600000002 0.7178768000000001 0.1137131400000000 Br
atom_frac 0.6088876300000001 0.6089013699999999 0.3150721300000000 O
atom_frac 0.3902198500000000 0.3901992100000000 0.6835569000000000 O
atom_frac 0.2311448500000000 0.2311040900000000 0.2541040299999999 O
atom_frac 0.7683325000000001 0.7683755400000000 0.7433770099999999 O
