#=======================================================
# FHI-aims file: ./geometry.in
# Created using the Atomic Simulation Environment (ASE)
# Wed Feb  9 14:46:20 2022
#=======================================================
lattice_vector -6.5711699599999998 0.2622217500000000 -1.9577473299999999 
lattice_vector -0.6669239500000000 -9.5095690400000006 -0.2629025900000000 
lattice_vector -6.6084109599999996 0.0013952800000000 10.1205374500000005 
atom_frac 0.9982615000000001 0.5002561700000001 0.5055717900000000 Co
    initial_moment         2.000000
atom_frac 0.5039446000000000 0.5003190000000001 0.4943756200000000 Co
    initial_moment         2.000000
atom_frac 0.8799898700000002 0.1452179000000000 0.7253149299999999 H
atom_frac 0.5228552600000002 0.1131500300000000 0.5611305899999999 H
atom_frac 0.4339421000000001 0.2725841000000001 0.0867238500000000 H
atom_frac 0.3340872000000000 0.2854093800000000 0.3017694400000000 H
atom_frac 0.5069276000000001 0.8522345300000003 0.5630653000000000 H
atom_frac 0.8631974900000002 0.8835901800000003 0.7257210899999998 H
atom_frac 0.4335403400000000 0.7299544600000000 0.0843148900000000 H
atom_frac 0.3345139700000000 0.7178694900000000 0.2993064200000000 H
atom_frac 0.0707301000000000 0.8524935500000005 0.4364463900000000 H
atom_frac 0.5897208700000000 0.8860826900000001 0.2740550200000000 H
atom_frac 0.5184799000000001 0.7297049300000001 0.9134137299999999 H
atom_frac 0.6342872700000000 0.7169972200000000 0.6985722899999999 H
atom_frac 0.6060593900000000 0.1477086400000000 0.2747350800000000 H
atom_frac 0.0843078999999999 0.1133740100000000 0.4389301900000000 H
atom_frac 0.5191066600000001 0.2723380200000001 0.9155526400000000 H
atom_frac 0.6341142500000000 0.2845356000000001 0.7003368900000001 H
atom_frac 0.2016577500000000 0.1451120200000000 0.6411964700000000 C
atom_frac 0.0174424200000000 0.0797342400000000 0.6912782300000000 C
atom_frac 0.3798644000000000 0.0621060200000000 0.6013146200000000 C
atom_frac 0.2114474900000001 0.2978903700000000 0.6125697299999999 C
atom_frac 0.4169785100000000 0.3750416000000000 0.1279630200000000 C
atom_frac 0.3637918700000001 0.3773239700000001 0.2456569500000000 C
atom_frac 0.1845262700000001 0.8521777700000002 0.6422339100000000 C
atom_frac 0.3712527000000000 0.9173031300000001 0.6023537199999999 C
atom_frac 0.0083913900000000 0.9343991900000004 0.6913963499999999 C
atom_frac 0.1835716100000001 0.7007442300000001 0.6137672400000000 C
atom_frac 0.4167918800000001 0.6274748600000000 0.1266443400000000 C
atom_frac 0.3623636600000000 0.6255005500000002 0.2443746099999999 C
atom_frac 0.8274695599999999 0.8535385100000001 0.3574487900000000 C
atom_frac 0.9742562600000001 0.9181147200000003 0.3973515900000000 C
atom_frac 0.7005119500000000 0.9364207100000000 0.3084212100000000 C
atom_frac 0.7979555900000000 0.7017688900000002 0.3858610700000000 C
atom_frac 0.5436411100000003 0.6270976700000001 0.8721021799999998 C
atom_frac 0.6068273700000000 0.6247705400000001 0.7543883599999998 C
atom_frac 0.8432885000000000 0.1464454000000000 0.3589332000000000 C
atom_frac 0.7093564800000000 0.0817467300000000 0.3087321700000000 C
atom_frac 0.9816455000000001 0.0629041700000000 0.3986480700000000 C
atom_frac 0.8241742100000000 0.2988292500000000 0.3877477999999999 C
atom_frac 0.5439102199999999 0.3746648400000001 0.8732829500000000 C
atom_frac 0.6082796800000001 0.3765945000000000 0.7555593599999999 C
atom_frac 0.4491453200000001 0.5011707300000001 0.0615592200000000 C
atom_frac 0.5105208599999999 0.5009896900000000 0.9384388600000000 C
atom_frac 0.3388838100000000 0.5013916500000001 0.3025512100000000 N
atom_frac 0.6409513500000000 0.5004929100000000 0.6974331699999999 N
atom_frac 0.0462037100000000 0.3638766000000000 0.6150640300000000 O
atom_frac 0.3907121600000000 0.3437861500000001 0.5823303900000000 O
atom_frac 0.3488563800000000 0.6322849500000000 0.6051101700000000 O
atom_frac 0.0230533900000000 0.6582051100000000 0.5938895500000000 O
atom_frac 0.9545475600000002 0.6331333300000000 0.3944661700000001 O
atom_frac 0.6174535600000000 0.6590925300000000 0.4058273600000000 O
atom_frac 0.6613863000000000 0.3647931400000001 0.3852427600000000 O
atom_frac 0.9730067800000001 0.3443812100000000 0.4180996000000000 O
atom_frac 0.2889792600000001 0.5016052200000001 0.4184967100000000 O
atom_frac 0.7073408400000002 0.5002704900000000 0.5814878200000000 O
