#=======================================================
# FHI-aims file: ./geometry.in
# Created using the Atomic Simulation Environment (ASE)
# Wed Feb  9 14:46:33 2022
#=======================================================
lattice_vector 7.1505998300000000 -0.1940190700000000 0.3552341400000000 
lattice_vector 3.0689593099999999 8.3348825899999994 2.1537716800000002 
lattice_vector -0.1233148300000000 -0.1904790100000000 12.5837345599999999 
atom_frac 1.0000023299999998 0.9999994000000002 1.0000002400000001 Cd
atom_frac 0.3594966900000000 0.0748780300000000 0.8873633200000001 H
atom_frac 0.6405078699999999 0.9251218200000000 0.1126360900000000 H
atom_frac 0.4604891400000000 0.1917836700000000 0.7046160800000001 H
atom_frac 0.5395120700000000 0.8082179799999999 0.2953830700000001 H
atom_frac 0.9204679800000000 0.1757969300000000 0.5700376900000000 H
atom_frac 0.0795335800000000 0.8242013400000000 0.4299632600000001 H
atom_frac 0.8418978200000000 0.0636609700000000 0.7589921200000000 H
atom_frac 0.1581075100000001 0.9363348500000001 0.2410090400000000 H
atom_frac 0.2827108800000000 0.0930741700000000 0.3498501300000000 H
atom_frac 0.7172893100000000 0.9069261300000000 0.6501489400000001 H
atom_frac 0.2694382700000000 0.1979095300000000 0.2102371100000000 H
atom_frac 0.7305613200000000 0.8020915900000001 0.7897621300000001 H
atom_frac 0.0493264700000000 0.2106859900000000 0.2826596700000000 H
atom_frac 0.9506734300000000 0.7893140400000001 0.7173396700000001 H
atom_frac 0.9562470299999999 0.4986103200000001 0.2260304900000000 H
atom_frac 0.0437515700000000 0.5013901200000002 0.7739697900000000 H
atom_frac 0.1848526600000000 0.4956224800000000 0.1648239800000000 H
atom_frac 0.8151455000000000 0.5043783300000000 0.8351758400000001 H
atom_frac 0.0985630700000000 0.6059845500000000 0.2679285100000000 H
atom_frac 0.9014358700000000 0.3940157399999999 0.7320716400000000 H
atom_frac 0.3145874500000000 0.5616397900000001 0.4179253400000000 H
atom_frac 0.6854118600000000 0.4383604400000000 0.5820746300000001 H
atom_frac 0.4269716400000000 0.5721385399999999 0.2876864900000001 H
atom_frac 0.5730269000000000 0.4278624600000000 0.7123132900000001 H
atom_frac 0.5783861400000000 0.4810958600000000 0.4080297700000001 H
atom_frac 0.4216130900000000 0.5189048000000001 0.5919697300000001 H
atom_frac 0.5799614600000000 0.3278537000000000 0.2151991300000000 H
atom_frac 0.4200365200000000 0.6721481900000001 0.7847998800000001 H
atom_frac 0.5946498900000000 0.1367648200000000 0.2961366800000000 H
atom_frac 0.4053496300000001 0.8632365400000001 0.7038619700000001 H
atom_frac 0.7291425300000000 0.2513945800000000 0.3372455400000000 H
atom_frac 0.2708566500000000 0.7486071300000000 0.6627530300000000 H
atom_frac 0.6614841299999999 0.5530625400000000 0.0484157200000000 Au
atom_frac 0.3385171600000001 0.4469360100000000 0.9515838300000000 Au
atom_frac 0.4525401100000000 0.7492476099999998 0.0579893300000000 C
atom_frac 0.5474627600000000 0.2507509700000000 0.9420116900000001 C
atom_frac 0.8798005700000000 0.3596966300000000 0.0406342600000000 C
atom_frac 0.1202024000000000 0.6403028900000000 0.9593648700000003 C
atom_frac 0.2664113200000000 0.1004720500000000 0.8145041400000002 C
atom_frac 0.7335924000000001 0.8995275600000000 0.1854956200000000 C
atom_frac 0.3223287000000000 0.1644657800000000 0.7131040000000000 C
atom_frac 0.6776732100000000 0.8355348800000000 0.2868955600000000 C
atom_frac 0.1977803500000000 0.1943165600000000 0.6225454300000000 C
atom_frac 0.8022207599999999 0.8056836599999999 0.3774545500000000 C
atom_frac 0.0229043800000000 0.1553177800000000 0.6379337400000001 C
atom_frac 0.9770977299999999 0.8446810200000000 0.3620668600000000 C
atom_frac 0.9786017600000000 0.0928134400000000 0.7425332900000000 C
atom_frac 0.0214022900000000 0.9071842000000000 0.2574674800000000 C
atom_frac 0.2467566100000000 0.2612114900000000 0.5146186699999999 C
atom_frac 0.7532436400000000 0.7387884900000000 0.4853810200000000 C
atom_frac 0.2124309700000000 0.3503933400000000 0.3252383800000000 C
atom_frac 0.7875683400000000 0.6496069700000000 0.6747613000000001 C
atom_frac 0.2048114700000000 0.2027997600000000 0.2907289700000000 C
atom_frac 0.7951882899999999 0.7972006800000001 0.7092703600000000 C
atom_frac 0.1071301600000000 0.4970271400000000 0.2420803300000000 C
atom_frac 0.8928685100000000 0.5029733300000000 0.7579196600000000 C
atom_frac 0.4214461900000001 0.3382303600000000 0.3625022700000001 C
atom_frac 0.5785531300000000 0.6617702800000000 0.6374971600000001 C
atom_frac 0.4345819600000000 0.4989984700000000 0.3705967200000000 C
atom_frac 0.5654171300000000 0.5010021500000000 0.6294029600000001 C
atom_frac 0.5908026000000000 0.2568509200000000 0.2991779000000000 C
atom_frac 0.4091964299999999 0.7431504600000000 0.7008210300000000 C
atom_frac 0.3271948600000001 0.8660372300000000 0.0645256700000000 N
atom_frac 0.6728080400000002 0.1339606400000000 0.9354769800000000 N
atom_frac 0.0045195700000000 0.2437147200000000 0.0315796100000000 N
atom_frac 0.9954844500000000 0.7562857200000001 0.9684187000000001 N
atom_frac 0.0968248000000000 0.0670723300000000 0.8291007400000000 N
atom_frac 0.9031799700000001 0.9329258200000000 0.1708996200000000 N
atom_frac 0.1114246900000000 0.3482334200000001 0.4330509600000000 N
atom_frac 0.8885750900000001 0.6517662300000001 0.5669489300000000 N
atom_frac 0.4307692700000000 0.2418410000000000 0.4773458700000001 N
atom_frac 0.5692307999999999 0.7581592400000000 0.5226535100000000 N
atom_frac 0.9264803200000000 0.3954503599999999 0.4398706800000001 O
atom_frac 0.0735195400000000 0.6045487100000000 0.5601295100000000 O
atom_frac 0.5915766600000000 0.1695090600000000 0.5315369400000000 O
atom_frac 0.4084236400000000 0.8304912900000000 0.4684622100000000 O
