#=======================================================
# FHI-aims file: ./geometry.in
# Created using the Atomic Simulation Environment (ASE)
# Fri Jan 14 15:06:22 2022
#=======================================================
lattice_vector 7.0043963480000002 0.0000000000000000 0.3170170000000000 
lattice_vector 3.1528354759999999 8.5858067479999995 1.3868780000000001 
lattice_vector 0.0000000000000000 0.0000000000000000 16.2975999999999992 
atom_frac 0.9689916688740894 0.3134696690706349 0.1298896144467392 Zn
atom_frac 0.0310090938694927 0.6865248861294333 0.8701080729103268 Zn
atom_frac 0.2350893100598626 0.3662358229449367 0.0149211102578590 H
atom_frac 0.7649289639291652 0.6337610616809568 0.9850772654219071 H
atom_frac 0.2927531863452160 0.1922906080298858 0.0729088116803140 H
atom_frac 0.7072752264824870 0.8077027824572696 0.9270933456458297 H
atom_frac 0.9157408309127957 0.2154404419166411 0.4447461577043300 H
atom_frac 0.0842395979558503 0.7845739134029728 0.5552520810120712 H
atom_frac 0.8174981669371987 0.2377982710216031 0.2969346402595576 H
atom_frac 0.1824995391440112 0.7622125901592653 0.7030611053765128 H
atom_frac 0.3320940207266645 0.3349784224609920 0.2105326149399573 H
atom_frac 0.6679184536456049 0.6650091444615853 0.7894740295091297 H
atom_frac 0.4506495881393349 0.3202075332804810 0.3539495162585808 H
atom_frac 0.5493665560762864 0.6797718806516997 0.6460583641884626 H
atom_frac 0.6044978735821687 0.4114954020858903 0.5763185976681555 H
atom_frac 0.3955062687743052 0.5884979884012651 0.4236913948086852 H
atom_frac 0.4677212698272299 0.4363294108468807 0.6707440816774692 H
atom_frac 0.5322713060157938 0.5636674737790202 0.3292584754001240 H
atom_frac 0.3331484905981624 0.4969038000993677 0.5739085090124832 H
atom_frac 0.6668643067246265 0.5030989080910970 0.4260999086135087 H
atom_frac 0.6477682781348050 0.0050793130197277 0.6532723871176316 H
atom_frac 0.3521922194845360 0.9949222304578241 0.3467310110705101 H
atom_frac 0.6314591529782732 0.1374349591871322 0.7239993123142485 H
atom_frac 0.3685065872744318 0.8625549371612777 0.2760080429683923 H
atom_frac 0.7764388995857414 0.1418387387165083 0.6313630622359341 H
atom_frac 0.2235438276490669 0.8581546517706471 0.3686424381044944 H
atom_frac 0.1283188338456115 0.4611575960433000 0.6855323129642059 H
atom_frac 0.8716624984344816 0.5388579239892265 0.3144645818910448 H
atom_frac 0.2312659849751811 0.3003142367024053 0.7644509340805854 H
atom_frac 0.7687028773800151 0.6997036127559468 0.2355490730457177 H
atom_frac 0.9899985241815941 0.3349993872934504 0.7191795330360763 H
atom_frac 0.0099729032926987 0.6650254504423856 0.2808136936394449 H
atom_frac 0.0914631738079024 0.0721749298799850 0.6818566412617102 H
atom_frac 0.9084905973057219 0.9278510725687710 0.3181448063820370 H
atom_frac 0.3324493669870421 0.0212199045875821 0.7298914245159551 H
atom_frac 0.6675161157552695 0.9787991095836829 0.2701116171724891 H
atom_frac 0.3174041822569507 0.9918485530767072 0.6246603512639624 H
atom_frac 0.6825710601759239 0.0081646375299940 0.3753442233241628 H
atom_frac 0.3951017722020822 0.6629906969809198 0.0206637056765615 H
atom_frac 0.6049235839632486 0.3370189994870357 0.9793285332939874 H
atom_frac 0.4742162725849824 0.7768122665413626 0.0791307638742893 H
atom_frac 0.5258077121031518 0.2231846180845379 0.9208675007223377 H
atom_frac 0.2788546604394000 0.7005666650255264 0.2025658892630915 H
atom_frac 0.7211750349478477 0.2994302196003744 0.7974285827267238 H
atom_frac 0.1873417432300499 0.5990176754441875 0.1401356670247011 H
atom_frac 0.8126944773501064 0.4009710561913025 0.8598599854215010 H
atom_frac 0.0339776068099695 0.8487938540775559 0.0407909752519728 H
atom_frac 0.9660356258585096 0.1511983716966867 0.9592060541831486 H
atom_frac 0.9220466043526159 0.8512211157911764 0.1393871314182249 H
atom_frac 0.0779784850597807 0.1487606275668298 0.8606081050561514 H
atom_frac 0.1925617523322316 0.2677593460318093 0.4117529639121714 C
atom_frac 0.8074403818885473 0.7322480210103137 0.5882509695643564 C
atom_frac 0.0127634169984105 0.2420075434942675 0.3951065704108104 C
atom_frac 0.9872362410209232 0.7580021529736880 0.6048941450684993 C
atom_frac 0.9575941523021922 0.2531375401043476 0.3130587012366703 C
atom_frac 0.0424015129232629 0.7468651680861242 0.6869377778932275 C
atom_frac 0.2443323369558712 0.3088329469583826 0.2640584426985271 C
atom_frac 0.7556769029187365 0.6911522905383691 0.7359453949581649 C
atom_frac 0.3100768764518805 0.3003736370610426 0.3443058345914666 C
atom_frac 0.6899319842746222 0.6996092710098836 0.6556969814930796 C
atom_frac 0.2558185575314553 0.2589622693892935 0.4965278380927813 C
atom_frac 0.7441705825010912 0.7410485917915750 0.5034693013425623 C
atom_frac 0.4549965386511730 0.2444732407340666 0.6124106496136648 C
atom_frac 0.5449900924598623 0.7555178203272561 0.3875888371440510 C
atom_frac 0.4643332726553809 0.4087513384595454 0.6077177142721908 C
atom_frac 0.5356620696195478 0.5912362284630390 0.3922874226645093 C
atom_frac 0.6387019766485337 0.1239196305283556 0.6580232185181175 C
atom_frac 0.3612832267877194 0.8760714305329742 0.3419818182958707 C
atom_frac 0.2452251800002472 0.2355643516517674 0.6427173591339681 C
atom_frac 0.7547425449106342 0.7644465095291010 0.3572801968631795 C
atom_frac 0.1422937851452062 0.3402359365566312 0.7065478791904810 C
atom_frac 0.8576775534114418 0.6597795834758955 0.2934492100602739 C
atom_frac 0.2483355935343496 0.0690010871882265 0.6711053962145996 C
atom_frac 0.7516236542455131 0.9310190916959584 0.3288982812284615 C
atom_frac 0.6077171849286245 0.5332463371676184 0.1167672361321408 C
atom_frac 0.3923120423928735 0.4667389003291333 0.8832294632734943 C
atom_frac 0.4280531674174170 0.6735511489758466 0.0845570267177678 C
atom_frac 0.5719788590560527 0.3264469003629600 0.9154348464655585 C
atom_frac 0.2389521414473279 0.6989500435003251 0.1382387388661641 C
atom_frac 0.7610757471170401 0.3010445116997431 0.8617541257350184 C
atom_frac 0.0637492718422550 0.8476163293210917 0.1068034531165480 C
atom_frac 0.9362743336977742 0.1523782258789765 0.8931913355588251 C
atom_frac 0.0969494995290958 0.0000594003586372 0.1121130092441334 C
atom_frac 0.9030559253869301 0.9999374842672636 0.8878868435472711 C
atom_frac 0.0694915489210004 0.2873393348359130 0.2485301759533414 N
atom_frac 0.9305108755302456 0.7126610439287262 0.7514669835123087 N
atom_frac 0.4507600560500434 0.2155767133276285 0.5235109953787571 N
atom_frac 0.5492323746777571 0.7844236654370107 0.4764931079424458 N
atom_frac 0.1275834176522039 0.2908509442728473 0.5616004265532908 N
atom_frac 0.8724043509031527 0.7091471050659592 0.4384039656826815 N
atom_frac 0.6121844233504632 0.1672201625472667 0.4806912162569645 O
atom_frac 0.3878009579210868 0.8327895339206890 0.5193122312793221 O
atom_frac 0.9335795154484285 0.3473441794732537 0.5583371430033637 O
atom_frac 0.0664184808632413 0.6526596934301307 0.4416610324309858 O
atom_frac 0.6045006116569880 0.4429752627364891 0.1816194030508100 O
atom_frac 0.3955145167520229 0.5570286101668955 0.8183735304358777 O
atom_frac 0.7744316832401452 0.5110585561481571 0.0722478231666415 O
atom_frac 0.2256070135414632 0.4889278460615074 0.9277436842294621 O
atom_frac 0.2731228016415486 0.0071490078686338 0.1126430043108897 O
atom_frac 0.7268871965292686 0.9928408884797761 0.8873647172519129 O
atom_frac 0.9304793499182081 0.1189544593742369 0.1140804109328357 O
atom_frac 0.0695381657746025 0.8810377664000058 0.8859159216026457 O
atom_frac 0.2371312607410587 0.3073863735186889 0.0721620336847622 O
atom_frac 0.7628909171241957 0.6926081816813792 0.9278352371105000 O
