#=======================================================
# FHI-aims file: ./geometry.in
# Created using the Atomic Simulation Environment (ASE)
# Fri Jan 14 15:05:47 2022
#=======================================================
lattice_vector -4.7211255090000002 9.2548870579999996 -0.8588435020000000 
lattice_vector 10.0276390830000004 0.0030955130000000 -2.8420699350000000 
lattice_vector -4.7032688030000003 -8.8780306840000005 -11.7003206340000006 
atom_frac 0.3211268164881177 0.8568878105096972 0.7037343243822461 Ag
atom_frac 0.3469984523241791 0.3825339783313950 0.2039580272827023 Ag
atom_frac 0.8881996829835045 0.0528922154760848 0.4792032862841467 H
atom_frac 0.6140055502182521 0.9973324122494702 0.4145738403828290 H
atom_frac 0.5055137425347668 0.6487133227231185 0.5535552724329733 H
atom_frac 0.7764844130590377 0.7018230281421723 0.6165430422909921 H
atom_frac 0.1308044014967322 0.7503423740293584 0.4753095373639268 H
atom_frac 0.9313032257658096 0.2840744350511670 0.4242658829855727 H
atom_frac 0.3540292702390460 0.5220694972835958 0.3910616112716595 H
atom_frac 0.5860230189589046 0.4026196806039550 0.4427190340073678 H
atom_frac 0.4425325348802644 0.2157418767654064 0.5106150927999450 H
atom_frac 0.8536619138788879 0.1897269182971471 0.6636699185356462 H
atom_frac 0.9954195412917742 0.3732821756540332 0.5915074093259277 H
atom_frac 0.8526337401143209 0.1718634377492023 0.2738209698334443 H
atom_frac 0.6364588915669955 0.9266153829943773 0.2275677546505364 H
atom_frac 0.9451189233057845 0.7580054304944140 0.3563138515548019 H
atom_frac 0.1645203224488299 0.0045491497966736 0.3986346984968349 H
atom_frac 0.9272647775883839 0.5912401676298485 0.9797568053851292 H
atom_frac 0.9171685819905806 0.8004648079681616 0.9150474669262747 H
atom_frac 0.4047463073555519 0.0492167142807673 0.0535753625580782 H
atom_frac 0.4157968195286657 0.8415688782504774 0.1165402247461316 H
atom_frac 0.2240615164478612 0.3444529271910853 0.9747533653920825 H
atom_frac 0.6392610385047420 0.4929500327656766 0.9238709503401309 H
atom_frac 0.3681257222191834 0.0368177354479686 0.8907139695195454 H
atom_frac 0.5388934089854445 0.8568281115567230 0.9424083174321038 H
atom_frac 0.7934185393217562 0.0684998310022138 0.0105677730346869 H
atom_frac 0.9732339793642384 0.8105835560045945 0.1633458796862044 H
atom_frac 0.7175821237838208 0.5963115317713061 0.0908137659414407 H
atom_frac 0.6009136893062604 0.4213974005084752 0.7736538666897701 H
atom_frac 0.7997594428898367 0.5917971951002343 0.7276777320749800 H
atom_frac 0.0977247057165230 0.4124639077731302 0.8562977728013478 H
atom_frac 0.8935910656516769 0.2347560076043679 0.8984268429362741 H
atom_frac 0.0048077319964506 0.9148205943889707 0.5910023340120886 C
atom_frac 0.8488474166175806 0.8819942253764949 0.5528441350970893 C
atom_frac 0.8034812328077265 0.9649860451877145 0.4951058794635086 C
atom_frac 0.6512457454797342 0.9331017102423687 0.4584884187467536 C
atom_frac 0.5419222307725278 0.8186441763599747 0.4781919904107284 C
atom_frac 0.5885449601643412 0.7363150785440592 0.5363753040813247 C
atom_frac 0.7404017983228997 0.7668792372795609 0.5731010723849578 C
atom_frac 0.3812443867933482 0.7951662350522994 0.4413180499305723 C
atom_frac 0.2568558155551913 0.6518581917755811 0.4350952971611263 C
atom_frac 0.1336353178751891 0.6490245141750606 0.4551503572744123 C
atom_frac 0.0165348102602395 0.5159327511002445 0.4522630097751659 C
atom_frac 0.0218623554128001 0.3865707712702289 0.4255842764572221 C
atom_frac 0.1406104931489551 0.3868569917098910 0.4007388440909593 C
atom_frac 0.2598589675398983 0.5218950009612798 0.4078563205324456 C
atom_frac 0.8825348787100753 0.5129256759381063 0.4692897043951447 C
atom_frac 0.8001854032138099 0.3992974693041020 0.5110222890857372 C
atom_frac 0.6444428229635406 0.3559677522057568 0.4909565645595392 C
atom_frac 0.5639582757952512 0.2520904721269517 0.5299238834262994 C
atom_frac 0.6400669838127797 0.1918853859739328 0.5927453751576619 C
atom_frac 0.7960456594269020 0.2356254553913360 0.6144461814598755 C
atom_frac 0.8742672678823310 0.3375818155038459 0.5733253232418889 C
atom_frac 0.5576985858568407 0.0851913202958131 0.6319206741942834 C
atom_frac 0.1569716392962519 0.2539715896359808 0.3783948360763815 C
atom_frac 0.0241924114362391 0.1087214317118708 0.3459049302051652 C
atom_frac 0.8733609287375828 0.0826399028648055 0.2943775103120529 C
atom_frac 0.7515923627077826 0.9447294005927205 0.2669980468674068 C
atom_frac 0.7765088771401382 0.8264829475904848 0.2909012638162379 C
atom_frac 0.9275277539350738 0.8497011235495862 0.3382692596586664 C
atom_frac 0.0484237585160088 0.9876159387879251 0.3635326018622109 C
atom_frac 0.6525419968020144 0.6872706296582294 0.2675052633522838 C
atom_frac 0.1777152958317955 0.5871144853420489 0.0911804025844488 C
atom_frac 0.1719221485224978 0.7049147879210621 0.0532215034000600 C
atom_frac 0.0308528845095635 0.6920989626458861 0.9956050702567790 C
atom_frac 0.0255010616503030 0.8074478613125182 0.9589186176306939 C
atom_frac 0.1594265954366138 0.9366756694109525 0.9783988066377275 C
atom_frac 0.3002370160965597 0.9487781444184760 0.0365741729491802 C
atom_frac 0.3070226044682870 0.8339165807058463 0.0733643475007710 C
atom_frac 0.1455288661226889 0.0599553179323352 0.9411072240568003 C
atom_frac 0.2824426681187903 0.1781309911704767 0.9347192745744762 C
atom_frac 0.3052481481344176 0.3214405672029700 0.9546860627973713 C
atom_frac 0.4354671964792091 0.4356772554028865 0.9518505472972122 C
atom_frac 0.5381309149171402 0.4036603871559946 0.9251984666774716 C
atom_frac 0.5129825506209187 0.2599877094504136 0.9003202003413832 C
atom_frac 0.3850952558435311 0.1478227288290983 0.9074794820321941 C
atom_frac 0.4555069216871958 0.5867711406500505 0.9688355197451058 C
atom_frac 0.6108119777289929 0.7110507005671776 0.0105819564705953 C
atom_frac 0.6338904798570228 0.8467864398376580 0.9906370398675364 C
atom_frac 0.7766624811789101 0.9663794219743450 0.0297650453086149 C
atom_frac 0.8998745539417071 0.9532124351019958 0.0925079078700861 C
atom_frac 0.8780326188468096 0.8188855917039748 0.1140880931496752 C
atom_frac 0.7349834392691932 0.6994263876185940 0.0728634340696814 C
atom_frac 0.0456560274094500 0.0748945379629333 0.1319034880469303 C
atom_frac 0.6234090630342450 0.2213000703168362 0.8778202941565850 C
atom_frac 0.7363043092167346 0.3219307798475057 0.8455546089249921 C
atom_frac 0.7107128354389617 0.4213231039381001 0.7941841479001539 C
atom_frac 0.8212395714038224 0.5160578653813134 0.7669850653935554 C
atom_frac 0.9635157539587881 0.5153599656426876 0.7909169313438296 C
atom_frac 0.9878168330264357 0.4116385621257521 0.8381799659221868 C
atom_frac 0.8751598735675754 0.3155933343966451 0.8632435484417369 C
atom_frac 0.0792386633297042 0.6162296717850991 0.7676412336561923 C
atom_frac 0.1336765443265549 0.9443481986349553 0.6239913736900319 N
atom_frac 0.4869868382082602 0.9958145087207697 0.6626673135642561 N
atom_frac 0.5482312253475996 0.5719537813076910 0.2475592438070038 N
atom_frac 0.1814335955723294 0.4911803818749688 0.1240092459682884 N
atom_frac 0.1658072364199725 0.1763530770163513 0.1632775557219972 N
atom_frac 0.1745579159986974 0.7006213455006218 0.7476604684520181 N
atom_frac 0.3529235698217121 0.8945658986640267 0.4187231438470248 O
atom_frac 0.8388562589234781 0.6045482036555541 0.4468053177835570 O
atom_frac 0.2876561807494937 0.2676964496523837 0.3916898066684097 O
atom_frac 0.0233452672414245 0.0653099071754966 0.9183162651169920 O
atom_frac 0.3414014581895162 0.6079486304715617 0.9462823624849506 O
atom_frac 0.6227290922490097 0.1036576793870906 0.8906995899936161 O
