#=======================================================
# FHI-aims file: ./geometry.in
# Created using the Atomic Simulation Environment (ASE)
# Fri Jan 14 15:06:22 2022
#=======================================================
lattice_vector 3.8643424839999998 -0.0026031950000000 0.0022049540000000 
lattice_vector -1.9396471620000000 11.0834011770000007 -0.0558559140000000 
lattice_vector 0.0083227240000000 -0.0598091160000000 13.5170449690000005 
atom_frac 0.9186672588409125 0.9999484460141871 0.7500246865057180 Cu
atom_frac 0.0813441028489876 0.0000525556393072 0.2499742793848441 Cu
atom_frac 0.1813052767210266 0.3883659731561194 0.8599677513288597 H
atom_frac 0.7911866570497497 0.6115089055104264 0.6398507868019652 H
atom_frac 0.8186922400124176 0.6116332326940821 0.1400334288194287 H
atom_frac 0.2088164879230376 0.3884911959424286 0.3601489165157475 H
atom_frac 0.6671691719615537 0.8389400154691555 0.9224677962244955 C
atom_frac 0.8277970711879875 0.1609097238329085 0.5775391384090655 C
atom_frac 0.3328451016435211 0.1610564795068328 0.0775318903749849 C
atom_frac 0.1722060729637108 0.8390903696351729 0.4224590852624531 C
atom_frac 0.6568001042198331 0.7610471986369942 0.0027025709349786 C
atom_frac 0.8940126689684363 0.2386925385036490 0.4972130483035501 C
atom_frac 0.3432016815645085 0.2389501916948120 0.9972963815947369 C
atom_frac 0.1059947466974194 0.7613057634003583 0.5027873866879845 C
atom_frac 0.5761866904428177 0.6303410933340247 0.9980633965258010 C
atom_frac 0.9449981830204666 0.3696153961961030 0.5018583236067471 C
atom_frac 0.4238160020145473 0.3696581097349991 0.0019370429600514 C
atom_frac 0.0550036039955089 0.6303820061128677 0.4981428483922629 C
atom_frac 0.4024044307672909 0.5610528666213312 0.9186971609466285 C
atom_frac 0.8397690849312198 0.4388228165032403 0.5810692511055536 C
atom_frac 0.5975892694306781 0.4389490531310968 0.0813055106521077 C
atom_frac 0.1602288830860203 0.5611772757536357 0.4189289734053078 C
atom_frac 0.3286336645459116 0.4364761680972933 0.9211802714092984 C
atom_frac 0.8912229309037444 0.5634822682409961 0.5786744609852192 C
atom_frac 0.6713668927701876 0.5635239367423422 0.0788201721511896 C
atom_frac 0.1087823492103013 0.4365169314412398 0.4213252382578574 C
atom_frac 0.7422781916331120 0.8212622682935875 0.0927433228369452 C
atom_frac 0.9191650863237941 0.1785621155415811 0.4071753142834141 C
atom_frac 0.2577293539318575 0.1787414512545240 0.9072578743271651 C
atom_frac 0.0808410996421926 0.8214388888930911 0.5928243922695985 C
atom_frac 0.2474303572585725 0.6363246563958072 0.8061870732633950 Br
atom_frac 0.6092699631703129 0.3634227436738939 0.6937741140005755 Br
atom_frac 0.7525219367375158 0.3636772816136896 0.1938207838118089 Br
atom_frac 0.3906973997344990 0.6365782317147930 0.3062218997320373 Br
atom_frac 0.6833862762803733 0.9112756058624426 0.8596370969554885 N
atom_frac 0.7726051390458014 0.0887491763209880 0.6405626102025863 N
atom_frac 0.3166345301843452 0.0887235774914714 0.1403589006540571 N
atom_frac 0.2273958724278983 0.9112518428720334 0.3594400564821641 N
atom_frac 0.7975821473329464 0.8766543431690508 0.1669564392830908 N
atom_frac 0.9198459147806306 0.1232442199158115 0.3329023252448594 N
atom_frac 0.2024219026706859 0.1233475550514598 0.8330417916983637 N
atom_frac 0.0801658986036032 0.8767576721367405 0.6670944248313759 N
