#=======================================================
# FHI-aims file: ./geometry.in
# Created using the Atomic Simulation Environment (ASE)
# Wed Feb  9 14:46:33 2022
#=======================================================
lattice_vector 4.6636300100000003 -0.0176653400000000 0.6972247000000000 
lattice_vector 0.0047393300000000 9.7621337799999992 -0.0058400500000000 
lattice_vector 0.0851703400000000 0.0016081700000000 10.1618127499999993 
atom_frac 0.4594989000000000 0.7333175800000000 0.8868732499999997 Cu
    initial_moment         1.000000
atom_frac 0.5433321000000000 0.2334982600000000 0.6133629799999999 Cu
    initial_moment        -1.000000
atom_frac 0.5405400100000000 0.2666280500000000 0.1131474100000000 Cu
    initial_moment        -1.000000
atom_frac 0.4566846100000000 0.7665213800000000 0.3866364899999999 Cu
    initial_moment        -1.000000
atom_frac 0.0280098000000000 0.8467766600000001 0.8077066699999997 H
atom_frac 0.8886832300000000 0.6109847800000000 0.6578934100000000 H
atom_frac 0.1127209900000000 0.1104497600000000 0.8401176699999999 H
atom_frac 0.9724090600000000 0.3481660700000000 0.6921127099999999 H
atom_frac 0.9719937000000000 0.1531655200000000 0.1923585600000000 H
atom_frac 0.1112922700000000 0.3890447800000000 0.3420704099999999 H
atom_frac 0.8872230200000000 0.8895570600000000 0.1598880500000000 H
atom_frac 0.0275870100000000 0.6518568600000001 0.3078289799999999 H
atom_frac 0.1797013800000000 0.7404681900000001 0.7008953699999999 H
atom_frac 0.7026468000000000 0.7334757600000000 0.6301755799999998 H
atom_frac 0.2969352800000000 0.2336736000000000 0.8691254299999999 H
atom_frac 0.8203113500000000 0.2401168500000000 0.7982237400000000 H
atom_frac 0.8203056000000000 0.2595009699999999 0.2991374600000000 H
atom_frac 0.2973491400000000 0.2665685800000000 0.3698292799999999 H
atom_frac 0.7029940900000000 0.7663547500000000 0.1308777300000000 H
atom_frac 0.1797664500000000 0.7598952200000001 0.2017230900000000 H
atom_frac 0.6418841000000000 0.0013608600000000 0.9511844499999998 C
atom_frac 0.3740345400000001 0.4745434700000001 0.9687171299999999 C
atom_frac 0.6258366300000000 0.9740512100000001 0.5310131699999999 C
atom_frac 0.3579870800000000 0.5015669400000001 0.5486334999999999 C
atom_frac 0.3580733300000000 0.9986040300000001 0.0488246400000000 C
atom_frac 0.6260219000000000 0.5254150200000000 0.0312949600000000 C
atom_frac 0.3742332899999999 0.0259706200000000 0.4689721900000000 C
atom_frac 0.6419748900000000 0.4984593900000001 0.4513767000000000 C
atom_frac 0.7054128300000000 0.8950748900000001 0.8808802599999999 O
atom_frac 0.2504296400000000 0.5574800200000000 0.9031151800000000 O
atom_frac 0.7551614700000000 0.0566984900000000 0.5949526799999999 O
atom_frac 0.2937452800000000 0.3960391600000000 0.6202909899999999 O
atom_frac 0.2945872400000000 0.1048778300000000 0.1191532900000000 O
atom_frac 0.7496270600000000 0.4424751000000000 0.0968876800000000 O
atom_frac 0.2449144900000000 0.9433221500000001 0.4050304000000000 O
atom_frac 0.7062133400000000 0.6039814000000000 0.3797035000000000 O
atom_frac 0.2026060800000000 0.8943301800000001 0.0513485500000000 O
atom_frac 0.6936348499999999 0.6498851600000000 0.0106594900000000 O
atom_frac 0.3136133300000000 0.1515798800000000 0.4884658499999999 O
atom_frac 0.7971535700000000 0.3946498400000000 0.4504333200000000 O
atom_frac 0.7973280200000000 0.1056470300000000 0.9486311599999998 O
atom_frac 0.3064106600000000 0.3500792500000000 0.9893578899999999 O
atom_frac 0.6864439200000000 0.8484402500000001 0.5115234200000000 O
atom_frac 0.2028127400000000 0.6053808300000000 0.5495803600000000 O
atom_frac 0.2203481500000000 0.8128920100000000 0.7629317699999999 O
atom_frac 0.7037695300000000 0.6557473400000001 0.6929854399999998 O
atom_frac 0.2979898000000000 0.1560370400000000 0.8061647900000000 O
atom_frac 0.7797026800000000 0.3133094199999999 0.7370549799999999 O
atom_frac 0.7796563299999999 0.1870712500000000 0.2371127500000000 O
atom_frac 0.2962220300000000 0.3442880200000000 0.3070112700000000 O
atom_frac 0.7018833500000000 0.8440198799999998 0.1938072100000000 O
atom_frac 0.2203002800000000 0.6867150700000000 0.2629185200000000 O
