#=======================================================
# FHI-aims file: ./geometry.in
# Created using the Atomic Simulation Environment (ASE)
# Fri Jan 14 15:06:22 2022
#=======================================================
lattice_vector 8.7743484479999996 0.0443452830000000 -2.2431875890000001 
lattice_vector -4.1651235040000003 8.4631421759999998 -0.7205958070000000 
lattice_vector -0.0187978290000000 -0.2128752410000000 12.3006375210000005 
atom_frac 0.8785700045188349 0.0020880902019229 0.2160995309966935 Co
atom_frac 0.1214297591577777 0.9979106809705059 0.7839089611968291 Co
atom_frac 0.4999945646287074 0.9999959236082674 0.0000003635187014 Co
atom_frac 0.9999965063863738 0.4999996186659958 0.9999894200509373 Co
atom_frac 0.7455857143295219 0.3864278005198898 0.3351100190250519 H
atom_frac 0.2544216314834742 0.6135798385113773 0.6648767993565768 H
atom_frac 0.6466679161599346 0.4871596589763669 0.1957396636736775 H
atom_frac 0.3533309485978153 0.5128397227128618 0.8042459373073144 H
atom_frac 0.3628876969913505 0.3866595124455118 0.0956747485231944 H
atom_frac 0.6371084638919484 0.6133389334200744 0.9043200601392340 H
atom_frac 0.3968958410864687 0.3760143747210024 0.2929113389851067 H
atom_frac 0.6031207082266832 0.6240029912223051 0.7070882961589929 H
atom_frac 0.4331862964582527 0.0700849808887440 0.2598654794798206 H
atom_frac 0.5668166278418454 0.9299229067796942 0.7401303027367162 H
atom_frac 0.5132173642202034 0.2145945048758406 0.3891602133730457 H
atom_frac 0.4867986779997722 0.7854169856671902 0.6108406110351082 H
atom_frac 0.0105173808633836 0.8719484255159315 0.3995292788018857 H
atom_frac 0.9894973296340267 0.1280793094037449 0.6005063989482550 H
atom_frac 0.9000470020983897 0.6895652232182670 0.5267468504836613 H
atom_frac 0.0999602868566143 0.3104541103145310 0.4732821038819565 H
atom_frac 0.3960283072163834 0.6306247102147255 0.3463463823186856 H
atom_frac 0.6039777002397100 0.3693536534269341 0.6536506714748213 H
atom_frac 0.5270492868397838 0.8125557742624850 0.2244375300226764 H
atom_frac 0.4729567729303882 0.1874131021627933 0.7755581645650123 H
atom_frac 0.8433910467111828 0.1704769524475722 0.9490117309652317 H
atom_frac 0.1566026995302821 0.8295260440382677 0.0509755872450484 H
atom_frac 0.1208405208613145 0.3737584012692068 0.1562379746699349 H
atom_frac 0.8791413957611312 0.6262292809939963 0.8437487280097214 H
atom_frac 0.0250474174674480 0.2403697116492225 0.9323009025154504 H
atom_frac 0.9749475348405168 0.7596286121331559 0.0676888007990897 H
atom_frac 0.2653080051570242 0.5414225148476532 0.1549775298386464 H
atom_frac 0.7346819287840417 0.4585628364562028 0.8450121242872228 H
atom_frac 0.6728654904402234 0.3518206615722334 0.0638246602606145 C
atom_frac 0.3271209259896041 0.6481740972978258 0.9361624646154708 C
atom_frac 0.2966164403030049 0.1476749934203738 0.0282701037279480 C
atom_frac 0.7033775626768134 0.8523260662783800 0.9717342201270682 C
atom_frac 0.1800328372128206 0.1615631077702702 0.2261191031216825 C
atom_frac 0.8199793613554363 0.8384474476942358 0.7738907211577697 C
atom_frac 0.7335564664569888 0.1809806176880855 0.2454229409237882 C
atom_frac 0.2664517159254772 0.8190167188961014 0.7545772469016399 C
atom_frac 0.6511340481998429 0.2876583806433999 0.2640912906417511 C
atom_frac 0.3488711302132543 0.7123446698053399 0.7359005544388564 C
atom_frac 0.5949585613932484 0.3601700613432329 0.1596430017180026 C
atom_frac 0.4050420898010215 0.6398282587135142 0.8403477406472672 C
atom_frac 0.3984789420325683 0.2951302433505775 0.1244384797543532 C
atom_frac 0.6015172876488036 0.7048683253433411 0.8755612264458249 C
atom_frac 0.3643005015287031 0.2613041452291042 0.2391501277943746 C
atom_frac 0.6357099175906243 0.7387098794969165 0.7608563233507581 C
atom_frac 0.4877522148214338 0.1972949481861050 0.2957821999866610 C
atom_frac 0.5122558215462690 0.8027188937876703 0.7042164892315624 C
atom_frac 0.8753743179185135 0.8141785173350301 0.3902157447718223 C
atom_frac 0.1246341267588633 0.1858384487663827 0.6098132816665539 C
atom_frac 0.8136819389313102 0.7126120871062441 0.4597075963856838 C
atom_frac 0.1863223276004008 0.2874105321906840 0.5403104307288586 C
atom_frac 0.6381308219372528 0.6414101348173419 0.4436554271539137 C
atom_frac 0.3618746271893798 0.3585957941023708 0.5563569600713548 C
atom_frac 0.5320126444835651 0.6799777561839662 0.3587109427233414 C
atom_frac 0.4679917784514701 0.3200044247328223 0.6412966142927984 C
atom_frac 0.6038737232155141 0.7816164113601121 0.2925646368982838 C
atom_frac 0.3961271453004258 0.2183703209220482 0.7074352218555687 C
atom_frac 0.5816144339798940 0.5365311632513681 0.5133117999511186 N
atom_frac 0.4183882055663447 0.4634688508155378 0.4866997284053339 N
atom_frac 0.7732775576438442 0.8483865018480756 0.3070662288566480 N
atom_frac 0.2267387113942120 0.1516206033360633 0.6929482004336902 N
atom_frac 0.6020031885864796 0.2307932303352587 0.9811470905174743 O
atom_frac 0.3979794225305326 0.7691862909818497 0.0188441385241660 O
atom_frac 0.8099669746860982 0.4716378005669739 0.0730285796238945 O
atom_frac 0.1900164008664975 0.5283578159668071 0.9269450334948670 O
atom_frac 0.3089363473817314 0.0211318297338181 0.0472650045288745 O
atom_frac 0.6910576944758873 0.9788669042214694 0.9527408161013396 O
atom_frac 0.2035006755865751 0.1553599667801322 0.9348094284410350 O
atom_frac 0.7964956114265291 0.8446387042707355 0.0651943590406034 O
atom_frac 0.0670422582902930 0.1895110613960824 0.1582714094805056 O
atom_frac 0.9329550927144085 0.8104850784522881 0.8417259200235633 O
atom_frac 0.1337967553293140 0.0529566176758038 0.2818676293593754 O
atom_frac 0.8662154871343972 0.9470612016185670 0.7181491321825462 O
atom_frac 0.6554279772311203 0.0545849812289134 0.1643948623926760 O
atom_frac 0.3445537164479548 0.9453925426320712 0.8356107157146795 O
atom_frac 0.8778713139012665 0.2075980373900421 0.3115963952944368 O
atom_frac 0.1221298782463195 0.7923942427501772 0.6883892140946981 O
atom_frac 0.9281180729414443 0.2629150559588069 0.9313678587561964 O
atom_frac 0.0718688595390802 0.7370808039962568 0.0686161728684880 O
atom_frac 0.1482420025519318 0.4884232188740896 0.1550155705832168 O
atom_frac 0.8517381136588253 0.5115607097635361 0.8449624542122363 O
