#=======================================================
# FHI-aims file: ./geometry.in
# Created using the Atomic Simulation Environment (ASE)
# Tue Nov 30 12:20:16 2021
#=======================================================
lattice_vector 9.4296929729999999 0.0000000000000000 0.0000000000000000 
lattice_vector -0.0089223870000000 9.4292677099999995 0.0000000000000000 
lattice_vector -0.0004797820000000 -0.0006965700000000 22.9798612069999990 
atom_frac 0.4999314951607020 0.0000744952662330 0.7500119276068560 Cu
atom_frac 0.0000340928702585 0.5000392693888216 0.2499915011780018 Cu
atom_frac 0.0125943562083108 0.8306882778092088 0.9362375954405806 H
atom_frac 0.8796781376304210 0.8057487241707975 0.9911813563548292 H
atom_frac 0.8310485524133000 0.6559797322334120 0.9166452229739120 H
atom_frac 0.6761997161291404 0.5290769411702100 0.8443049253095508 H
atom_frac 0.5181635931859887 0.6679704885118909 0.7789002657051611 H
atom_frac 0.6529569346123836 0.0486924085058860 0.8523985338098183 H
atom_frac 0.9874647672552896 0.1692816653604439 0.9362175779132399 H
atom_frac 0.1202467010313768 0.1943322114989883 0.9912096419912897 H
atom_frac 0.1687954891789047 0.3440626134148914 0.9166212889738289 H
atom_frac 0.3236348644493533 0.4709875932402312 0.8442866484367640 H
atom_frac 0.4817852476620388 0.3321140805252298 0.7789246348688792 H
atom_frac 0.3472464688181418 0.9513796929410961 0.8524894830101315 H
atom_frac 0.8299320724952395 0.9867430440253813 0.0636304974528983 H
atom_frac 0.8063481024649165 0.1211108304782513 0.0092498382860242 H
atom_frac 0.6562242414202049 0.1684667475632295 0.0833555948291149 H
atom_frac 0.5289295835102693 0.3249422955818773 0.1548951913998380 H
atom_frac 0.6675834174980509 0.4831556051683493 0.2204325759137760 H
atom_frac 0.0488217542991407 0.3455245459029115 0.1485043782144544 H
atom_frac 0.1699895068079442 0.0132602393188392 0.0636640050530133 H
atom_frac 0.1936390426870744 0.8789438062355118 0.0092611525406099 H
atom_frac 0.3436962225127687 0.8315998985663526 0.0833673442473355 H
atom_frac 0.4710331244275991 0.6750924969028418 0.1548764793634092 H
atom_frac 0.3324017953358336 0.5168050867024548 0.2203890595499871 H
atom_frac 0.9511475755554600 0.6543523417811699 0.1484521585779106 H
atom_frac 0.5132878916504496 0.6699856387640111 0.4363520697394634 H
atom_frac 0.3789226162064169 0.6935906408085658 0.4907379508699918 H
atom_frac 0.3316096980653996 0.8436922627960399 0.4166282778541586 H
atom_frac 0.1750862331416343 0.9710224255875701 0.3451243647017391 H
atom_frac 0.0168331056265600 0.8323864585817874 0.2795930724787326 H
atom_frac 0.1544306699355715 0.4511299266183926 0.3515082152689146 H
atom_frac 0.4867966359185020 0.3298956032890317 0.4363664301395076 H
atom_frac 0.6211812893437951 0.3063516624654882 0.4907457838154697 H
atom_frac 0.6685184826632382 0.1562518180835895 0.4166456843996755 H
atom_frac 0.8249487862093619 0.0289386611306170 0.3450952087380016 H
atom_frac 0.9831242110994085 0.1675946395208570 0.2795452044785732 H
atom_frac 0.8455275922062171 0.5488395274025919 0.3514847164324734 H
atom_frac 0.3307523832636293 0.5125236506755471 0.5637766861730924 H
atom_frac 0.3057270291634994 0.3797086393239510 0.5087959363496281 H
atom_frac 0.1559896980623776 0.3311960661511577 0.5833903816580204 H
atom_frac 0.0290644102669901 0.1763940547235947 0.6557337254678400 H
atom_frac 0.1679215743771111 0.0182593500382637 0.7211044423084800 H
atom_frac 0.5486619496313310 0.1527680724545419 0.6475339370399381 H
atom_frac 0.6693706317995591 0.4874326233639010 0.5637571038093867 H
atom_frac 0.6942780613868109 0.6203317797057792 0.5088072506042066 H
atom_frac 0.8440400742514598 0.6689773310585920 0.5833533927487977 H
atom_frac 0.9709345648904348 0.8237985156561649 0.6557032640131907 H
atom_frac 0.8320245460745570 0.9818039529325093 0.7211205433630781 H
atom_frac 0.4513071704419219 0.8470086284792515 0.6476170532947663 H
atom_frac 0.9312045302785564 0.8843985365985674 0.9626655183305175 C
atom_frac 0.7533724611621297 0.8635059919056971 0.8888796070612413 C
atom_frac 0.7614919164494297 0.7149503612633765 0.8877151091663719 C
atom_frac 0.6750746823983890 0.6445166435216407 0.8469720432458984 C
atom_frac 0.5857879931291093 0.7208772667620664 0.8107359671225892 C
atom_frac 0.6615036384239589 0.9333697055008869 0.8510638869325503 C
atom_frac 0.0688191660458415 0.1156336430553253 0.9626837952033043 C
atom_frac 0.2466999593623171 0.1365534671722344 0.8889252992432120 C
atom_frac 0.2384467631036173 0.2851089230960326 0.8877246827664036 C
atom_frac 0.3248354682844123 0.3555514683292245 0.8469781355368297 C
atom_frac 0.4141842309818813 0.2792014007995718 0.8107629472681381 C
atom_frac 0.3386285737589035 0.0667000761261889 0.8511335131146112 C
atom_frac 0.8844529418153614 0.0685499915202854 0.0376438304917386 C
atom_frac 0.8636585796314764 0.2456370788453839 0.1116555916890576 C
atom_frac 0.7150327588027352 0.2382208564001829 0.1123061613276377 C
atom_frac 0.6444289165429992 0.3254267914286827 0.1526571448104050 C
atom_frac 0.7206747834152694 0.4148319604218571 0.1889393482793267 C
atom_frac 0.9334051278795314 0.3375823283792698 0.1495161336724422 C
atom_frac 0.1155073630088097 0.9314664190642289 0.0376534040917704 C
atom_frac 0.1362869268980731 0.7543181482814774 0.1116307873616975 C
atom_frac 0.2849075676535620 0.7617927970934133 0.1122978932185177 C
atom_frac 0.3555367164817086 0.6745779753266774 0.1526345163012337 C
atom_frac 0.2793072327553859 0.5851368054149830 0.1889045351882999 C
atom_frac 0.0665600957961558 0.6623286464472997 0.1494743579632072 C
atom_frac 0.4314767639742528 0.6154838565537092 0.4623435235006354 C
atom_frac 0.2543713133495515 0.6362721572925381 0.3883422062306251 C
atom_frac 0.2618217977892244 0.7848976484881831 0.3876890256102214 C
atom_frac 0.1745952888060104 0.8555236954640080 0.3473545783456942 C
atom_frac 0.0851727025182711 0.7792966443947619 0.3110749858585962 C
atom_frac 0.1624000991184573 0.5665428435561211 0.3504903675200026 C
atom_frac 0.5685924218438103 0.3844415253426732 0.4623530971006673 C
atom_frac 0.7456606697476574 0.3636762270696535 0.3883382897578898 C
atom_frac 0.7382557185371823 0.2150495790662319 0.3876881552829444 C
atom_frac 0.8254346566950730 0.1444387817057802 0.3473310795092459 C
atom_frac 0.9148153904395218 0.2206838035324736 0.3110423485857580 C
atom_frac 0.8375813861153107 0.4334222183563554 0.3504720906472086 C
atom_frac 0.3844159884946664 0.4311569472576622 0.5373196073194179 C
atom_frac 0.3634978779759734 0.2533171973419002 0.6110933340068384 C
atom_frac 0.2149484204075520 0.2615713735854470 0.6122956911382005 C
atom_frac 0.1444984938958527 0.1751901569390384 0.6530426735314094 C
atom_frac 0.2208392867994888 0.0858486729382619 0.6892626486001204 C
atom_frac 0.4333451121999304 0.1613955658113824 0.6488899069354587 C
atom_frac 0.6156375277849123 0.5688017830363491 0.5373274402649031 C
atom_frac 0.6365069215877172 0.7466206188162232 0.6111268416069535 C
atom_frac 0.7850619405814214 0.7385129701839901 0.6122904691745460 C
atom_frac 0.8554927048039576 0.8249171756534253 0.6530396273859438 C
atom_frac 0.7791237142196721 0.9141844731468253 0.6892826661274611 C
atom_frac 0.5666327091212295 0.8384661761705416 0.6489525704993113 C
atom_frac 0.9999933422459153 0.0000137975334340 0.0001444743277617 C
atom_frac 0.5000280239349735 0.4999697036416535 0.4998528884282861 C
atom_frac 0.5761347569787248 0.8645566562944893 0.8127864581841138 N
atom_frac 0.4239246352907742 0.1355212549457363 0.8128304097115373 N
atom_frac 0.8644450562404842 0.4238314809316819 0.1873431680557117 N
atom_frac 0.1355357075219956 0.5761062935136324 0.1873048736555844 N
atom_frac 0.0761626457278624 0.6355199551225752 0.3126633331367259 N
atom_frac 0.9238171208460602 0.3644554257385977 0.3126428804457504 N
atom_frac 0.3645165142577938 0.0761128756264995 0.6871964916476329 N
atom_frac 0.6354451323138052 0.9238308821147642 0.6872334805568555 N
atom_frac 0.8288180933064453 0.9499820090231594 0.9255103766040804 O
atom_frac 0.1713238057702284 0.0500775611506299 0.9255786972952220 O
atom_frac 0.9502749034225602 0.1697345458578425 0.0753298718563471 O
atom_frac 0.0496679813414289 0.8302354646889469 0.0753102894926485 O
atom_frac 0.3302915577213668 0.5496551763601687 0.4246609634451275 O
atom_frac 0.6697600199926016 0.4502837274458429 0.4246687963906126 O
atom_frac 0.4499741650488431 0.3286808933859505 0.5744360194820927 O
atom_frac 0.5500427448852108 0.6711857551602591 0.5744843226458939 O
