#=======================================================
# FHI-aims file: ./geometry.in
# Created using the Atomic Simulation Environment (ASE)
# Fri Jan 14 15:06:22 2022
#=======================================================
lattice_vector 10.0868855120000003 0.0000366490000000 0.0000403370000000 
lattice_vector 0.0000803210000000 17.3536413160000009 0.0003030000000000 
lattice_vector 0.0000967060000000 0.0003463910000000 19.2126934329999983 
atom_frac 0.9508859194120305 0.2499634121601275 0.7498873573059015 Tb
atom_frac 0.5492067480294408 0.7499701678753112 0.2499519717229290 Tb
atom_frac 0.0491911586298883 0.7500323062387794 0.2499467746536368 Tb
atom_frac 0.4508891661360934 0.2500451427889914 0.7498884057588242 Tb
atom_frac 0.8629539112551466 0.1339668318903691 0.5370368623774411 H
atom_frac 0.8628300068530093 0.3659690063647645 0.9628105695812721 H
atom_frac 0.6369604225167222 0.8659591109226528 0.0370990108077507 H
atom_frac 0.6373378903820280 0.6338414012811812 0.4628097704658244 H
atom_frac 0.1373214433164165 0.8661009167598336 0.4628134031959448 H
atom_frac 0.1369318090443343 0.6340952846252179 0.0371026763215809 H
atom_frac 0.3628192400478198 0.1339582379382094 0.9627575040490300 H
atom_frac 0.3629463875598161 0.3660909287006362 0.5370597553259842 H
atom_frac 0.8098655599219098 0.1124713703912334 0.4113823645388520 H
atom_frac 0.8095769814534250 0.3874696711475708 0.0884430882483329 H
atom_frac 0.6899216391574541 0.8873699029101161 0.9114132465921543 H
atom_frac 0.6905673614548319 0.6123038195304744 0.5884415246593377 H
atom_frac 0.1905436318622833 0.8876159708633010 0.5884449989184546 H
atom_frac 0.1898507367890403 0.6127288875535655 0.9114082180201492 H
atom_frac 0.3096419027433370 0.1124120291186301 0.0883943448664368 H
atom_frac 0.3098705815746142 0.3876187141924134 0.4114139477551504 H
atom_frac 0.4923883772988731 0.2509229101632543 0.5651807304767189 H
atom_frac 0.4922222638093885 0.2490652061901600 0.9345162738939053 H
atom_frac 0.0076528596979770 0.7491354053202030 0.0652398221857808 H
atom_frac 0.0076949070232786 0.7510354129029653 0.4346153835743891 H
atom_frac 0.5077124954321305 0.7489667797598190 0.4345935468436294 H
atom_frac 0.5076535639344399 0.7508602115490817 0.0652595648031564 H
atom_frac 0.9922705533721370 0.2509288878427327 0.9345474649842487 H
atom_frac 0.9924248001689121 0.2490876573531510 0.5651609719827421 H
atom_frac 0.4411786635634202 0.2344771070078266 0.4394439117584170 H
atom_frac 0.4408886015594362 0.2655334920673341 0.0602300642158156 H
atom_frac 0.0587552678410361 0.7655138295081584 0.9394786702990672 H
atom_frac 0.0589663488173073 0.7345832215316294 0.5603371063146766 H
atom_frac 0.5590144082781164 0.7654068205320712 0.5603157917608144 H
atom_frac 0.5587473102945920 0.7345014142527617 0.9394973677598912 H
atom_frac 0.9410174556286603 0.2344542312948334 0.0602721844589382 H
atom_frac 0.9412485314723256 0.2655594413065785 0.4394215520998372 H
atom_frac 0.5982244835769421 0.1625948369551296 0.3625825097077851 H
atom_frac 0.5978187846423068 0.3374156746123163 0.1371251593651692 H
atom_frac 0.9015884355040953 0.8372887217308148 0.8626172062725033 H
atom_frac 0.9021481558988282 0.6625466097071284 0.6371908707708727 H
atom_frac 0.4021738041609524 0.8374141358082029 0.6371844782577440 H
atom_frac 0.4015464772992559 0.6627863439212690 0.8626152827740016 H
atom_frac 0.0979642014552269 0.1625266338960643 0.1371305284204780 H
atom_frac 0.0982818560093861 0.3374819553463269 0.3625797602436691 H
atom_frac 0.0262455886452173 0.4439065543031902 0.7041664660306425 H
atom_frac 0.0263776731944745 0.0559746190536998 0.7955501933654504 H
atom_frac 0.4738078559736109 0.5560067620387485 0.2041557802211358 H
atom_frac 0.4738574249181653 0.9439402334875026 0.2956136729047573 H
atom_frac 0.9737958003336474 0.5560534379626106 0.2956093717735584 H
atom_frac 0.9738431573175957 0.9439940179755409 0.2041543369012473 H
atom_frac 0.5263366372945341 0.4440039409082387 0.7955659256869865 H
atom_frac 0.5263088780103757 0.0561067718906116 0.7041652862002934 H
atom_frac 0.8094460878349989 0.4224298082925911 0.4762257507021773 H
atom_frac 0.8095156337537687 0.0773020581306767 0.0235060183320570 H
atom_frac 0.6905639196582810 0.5776791374087367 0.9761950958802146 H
atom_frac 0.6905377539373632 0.9225374104995510 0.5235992887735607 H
atom_frac 0.1904535333567310 0.5774201200335938 0.5235943307199592 H
atom_frac 0.1906149833474871 0.9223185252729565 0.9762016405485171 H
atom_frac 0.3094556559598942 0.4227205334087003 0.0235141124143254 H
atom_frac 0.3095115649585339 0.0775147805051262 0.4762223506121331 H
atom_frac 0.7308604575116461 0.3515972538686967 0.5790663357072389 H
atom_frac 0.7310134576784931 0.1482377235421950 0.9207087834283812 H
atom_frac 0.7691403119952652 0.6484364990311706 0.0790764972244062 H
atom_frac 0.7690799001776510 0.8515939550880136 0.4208265214271520 H
atom_frac 0.2690262739282758 0.6483765662430941 0.4208312966832750 H
atom_frac 0.2691855627742754 0.8515661048050660 0.0790868350984226 H
atom_frac 0.2309546096104569 0.3517637878462807 0.9207326479884372 H
atom_frac 0.2309396773627768 0.1483775604164065 0.5790377994101092 H
atom_frac 0.1167287360879499 0.5217138757785877 0.6069793000589030 H
atom_frac 0.1166608978850903 0.9779807131694230 0.8926738474177186 H
atom_frac 0.3833325202141680 0.4782868774647612 0.1069126316804798 H
atom_frac 0.3835406135811538 0.0219435160326213 0.3927272303880542 H
atom_frac 0.8834772254227445 0.4780421260011850 0.3927148238078573 H
atom_frac 0.8833606673579337 0.0217113277124952 0.1069083726605697 H
atom_frac 0.6166156776294328 0.5220015800515583 0.8926763455058477 H
atom_frac 0.6167843103461833 0.9782694494863906 0.6069981153760153 H
atom_frac 0.1628573668175406 0.3634613289957188 0.7982188106795290 H
atom_frac 0.1627976438455292 0.1365091621569263 0.7015113272876903 H
atom_frac 0.3371912989484187 0.6365352448113840 0.2982722619563773 H
atom_frac 0.3372865833891224 0.8634762896599709 0.2015732346461832 H
atom_frac 0.8372573843887919 0.6365292040168529 0.2015689977412691 H
atom_frac 0.8372030981677980 0.8634681176535964 0.2982634693507507 H
atom_frac 0.6627747437398311 0.3635042692054498 0.7015348041056484 H
atom_frac 0.6628836853746805 0.1365430559542560 0.7981984380375452 H
atom_frac 0.0336424212834530 0.3931012452243364 0.8393882715886464 H
atom_frac 0.0334193896860029 0.1065476642260563 0.6606036999591042 H
atom_frac 0.4663509291694579 0.6068395176345760 0.3394525259652993 H
atom_frac 0.4666249768983163 0.8933068853178554 0.1605865682769263 H
atom_frac 0.9666150892222090 0.6066858679132352 0.1606025305400038 H
atom_frac 0.9663463932498357 0.8931460962985514 0.3394615346339762 H
atom_frac 0.5334168319720617 0.3934472023348192 0.6605965641060649 H
atom_frac 0.5336751605129706 0.1068738059639642 0.8393594654814507 H
atom_frac 0.1385932635751104 0.9574504720248247 0.2969226736461649 H
atom_frac 0.1389603123051444 0.5421066498393542 0.2036742089332293 H
atom_frac 0.3614157743909416 0.0425634471622729 0.7966697942807599 H
atom_frac 0.3610168023477057 0.4580314211975959 0.7037543539273229 H
atom_frac 0.8609613500570673 0.0419753208347160 0.7037848493254444 H
atom_frac 0.8614012913766799 0.4574741579328431 0.7967366310386197 H
atom_frac 0.6389448317536121 0.9579007505379593 0.2036489051677961 H
atom_frac 0.6385923293822557 0.5425411069876065 0.2968506144666705 H
atom_frac 0.1767440470874035 0.1774880887800592 0.4009687199064160 H
atom_frac 0.1776826456311937 0.3222181988070858 0.0994267257405852 H
atom_frac 0.3233135554796362 0.8225597073604479 0.9007980990933575 H
atom_frac 0.3219227170388166 0.6778468199198145 0.5993855919876977 H
atom_frac 0.8220035792518419 0.8221440083527014 0.5994478480266210 H
atom_frac 0.8232628849460609 0.6774795887747229 0.9008482634715662 H
atom_frac 0.6777142557632629 0.1777967332054686 0.0993883963895499 H
atom_frac 0.6767455931862472 0.3225280624357937 0.4009575754161858 H
atom_frac 0.3290254778338380 0.2220785250958670 0.3085329737331151 H
atom_frac 0.3302158176576171 0.2777043373637369 0.1917931261704879 H
atom_frac 0.1712510120996100 0.7778473394887159 0.8083227611298583 H
atom_frac 0.1692241961958771 0.7222930317749814 0.6917028247787869 H
atom_frac 0.6691947314081617 0.7777034009492496 0.6917165159016676 H
atom_frac 0.6711570002172350 0.7221530722382781 0.8083694339536507 H
atom_frac 0.8301158553319821 0.2223183634577097 0.1918054418555926 H
atom_frac 0.8290416134031916 0.2779199276720661 0.3085445760055876 H
atom_frac 0.2887234114891938 0.0029601060752569 0.2043918241107576 H
atom_frac 0.2892747682018637 0.4966316088842361 0.2961728334441887 H
atom_frac 0.2115461545926464 0.9969036501085501 0.7040496145024164 H
atom_frac 0.2105469086603478 0.5034635857089214 0.7962147010282195 H
atom_frac 0.7103880528395691 0.9965498220798924 0.7962074367046413 H
atom_frac 0.7114823984259857 0.5030869232107236 0.7041427539961731 H
atom_frac 0.7891247574722371 0.0033968939976106 0.2961951774050249 H
atom_frac 0.7887330841452354 0.4970034908067194 0.2043397822646043 H
atom_frac 0.3895958661777712 0.1335525322261546 0.2106885134336025 H
atom_frac 0.3905241682285236 0.3661401788335327 0.2897096821100575 H
atom_frac 0.1108678910619361 0.8662660244645224 0.7103649000027445 H
atom_frac 0.1090259942617138 0.6338803640943454 0.7896526111435094 H
atom_frac 0.6088573189385116 0.8661383448438897 0.7896265587908786 H
atom_frac 0.6107475284387789 0.6337091637810418 0.7104393456336454 H
atom_frac 0.8903175527377556 0.1338985264730680 0.2897580984894788 H
atom_frac 0.8896135665205307 0.3664173013997498 0.2106754633508601 H
atom_frac 0.0324763955683594 0.0569967210477955 0.5143220264484398 H
atom_frac 0.0328197514605861 0.4425893697403822 0.9862393650140078 H
atom_frac 0.4675340952626570 0.9430134967305864 0.0141081420433267 H
atom_frac 0.4671013850997953 0.5574671188322782 0.4863161054735842 H
atom_frac 0.9671634766214438 0.9425299153115249 0.4863709210553607 H
atom_frac 0.9675190501011883 0.5570260130392982 0.0141673105466111 H
atom_frac 0.5329385378977989 0.0574305324812414 0.9861892174296899 H
atom_frac 0.5324889109817619 0.4430230060104776 0.5142852208349211 H
atom_frac 0.7106150261543219 0.2021174766596303 0.6344362979003151 C
atom_frac 0.7105981704713428 0.2978616483138481 0.8653534780274724 C
atom_frac 0.7894292936172675 0.7979054209243017 0.1344994339528469 C
atom_frac 0.7894684895462233 0.7021053548393540 0.3654045405850611 C
atom_frac 0.2894759312709283 0.7978857330058703 0.3653941904873292 C
atom_frac 0.2894243812139550 0.7021041045802435 0.1345170887651790 C
atom_frac 0.2105932578618877 0.2021225673495408 0.8653409434829982 C
atom_frac 0.2106105709937154 0.2979116845108437 0.6344405213078801 C
atom_frac 0.6810834206111308 0.1931428430465587 0.5583805332796317 C
atom_frac 0.6809955669192291 0.3068098995913715 0.9413999984102188 C
atom_frac 0.8189088228125738 0.8068594647545736 0.0584427421991975 C
atom_frac 0.8190289880113539 0.6931678977130176 0.4414512188273818 C
atom_frac 0.3190382702485762 0.8068108093665388 0.4414431894650691 C
atom_frac 0.3188971133497560 0.6931529726801600 0.0584533925559541 C
atom_frac 0.1810195470173781 0.1931662187887541 0.9413945125353536 C
atom_frac 0.1811016244834320 0.3068814116725065 0.5583808302176649 C
atom_frac 0.7711079647195546 0.1552949852426906 0.5146426697494846 C
atom_frac 0.7709800055675089 0.3446187680186839 0.9851681934914038 C
atom_frac 0.7288117552225657 0.8446514440014283 0.0147045844205991 C
atom_frac 0.7291061684733080 0.6552639302310084 0.4851928792587826 C
atom_frac 0.2291029505560473 0.8446932417023378 0.4851888596010596 C
atom_frac 0.2287867679802460 0.6553959663135771 0.0147112213826759 C
atom_frac 0.2710075623919934 0.1553269872336002 0.9851430810726995 C
atom_frac 0.2711325053581746 0.3447375500358730 0.5146547849905758 C
atom_frac 0.7411133424107987 0.1439893090935698 0.4446293023276837 C
atom_frac 0.7408933180171501 0.3559404983017629 0.0551678122753287 C
atom_frac 0.7587237792632422 0.8559088375532440 0.9446765034936107 C
atom_frac 0.7591822649549087 0.6439207576144028 0.5551909890236502 C
atom_frac 0.2591967113477835 0.8560329165300971 0.5551892140478003 C
atom_frac 0.2586771607075136 0.6441624031377843 0.9446736059066581 C
atom_frac 0.2409587280581746 0.1439791236576156 0.0551404548491732 C
atom_frac 0.2411585220022232 0.3560570965831076 0.4446410607070490 C
atom_frac 0.5624085692397641 0.2218304185820301 0.5308199048235309 C
atom_frac 0.5622294367129257 0.2781568253184759 0.9689012685675494 C
atom_frac 0.9375881681551874 0.7781868195880148 0.0308736717195970 C
atom_frac 0.9377182533587743 0.7218878709819948 0.4689791920459001 C
atom_frac 0.4377448465182354 0.7780990320675869 0.4689679044794133 C
atom_frac 0.4375849245689877 0.7218216071737447 0.0308839382286052 C
atom_frac 0.0622896414731713 0.2218319500114987 0.9689172596887233 C
atom_frac 0.0624421009172380 0.2781942854185430 0.5308054918988034 C
atom_frac 0.5338455024457787 0.2118714400739422 0.4603437982326994 C
atom_frac 0.5335693604435718 0.2881295471509305 0.0393526902824206 C
atom_frac 0.9660805421335039 0.7880969575732806 0.9603891459662889 C
atom_frac 0.9663449276932139 0.7119230772964543 0.5394379160836847 C
atom_frac 0.4663773105578811 0.7880591633717347 0.5394216298695014 C
atom_frac 0.4660734907823851 0.7119157310979035 0.9604007659766154 C
atom_frac 0.0336872244118567 0.2118526630152999 0.0393762827913591 C
atom_frac 0.0339105998336606 0.2881625367958948 0.4603264685267235 C
atom_frac 0.6220905168002844 0.1721156154580683 0.4172898913763349 C
atom_frac 0.6217702863547316 0.3278723211551338 0.0824327718475075 C
atom_frac 0.8777619997556911 0.8278014863041961 0.9173353976278945 C
atom_frac 0.8782046425916333 0.6720950278616158 0.5824946392911059 C
atom_frac 0.3782373825646771 0.8278772223558449 0.5824849043298812 C
atom_frac 0.3777327786569913 0.6722461405340282 0.9173378596954153 C
atom_frac 0.1218947319210031 0.1720858995339185 0.0824404421289557 C
atom_frac 0.1221440755334768 0.3279369946849117 0.4172843196672602 C
atom_frac 0.9831410539899962 0.4439274644576869 0.6523851471802971 C
atom_frac 0.9831819306074223 0.0558770604737688 0.8473144833862705 C
atom_frac 0.5168890434022088 0.5560468897082060 0.1523644083661395 C
atom_frac 0.5170030506623746 0.9440082585814767 0.3473923702796213 C
atom_frac 0.0169608100946093 0.5559725980300457 0.3473839250820987 C
atom_frac 0.0169239003979200 0.9439561590007202 0.1523666272421949 C
atom_frac 0.4831384654749298 0.4440992323119844 0.8473291892335341 C
atom_frac 0.4832009247131594 0.0560710166534903 0.6523839857912677 C
atom_frac 0.8612573818808612 0.4309514307370747 0.5250775856262778 C
atom_frac 0.8613422059986247 0.0688028984076894 0.9746563892284641 C
atom_frac 0.6387592937183867 0.5691230869018966 0.0250449939124380 C
atom_frac 0.6387818419252653 0.9310617784351148 0.4747331316946841 C
atom_frac 0.1387136193213010 0.5688956165623085 0.4747242785684094 C
atom_frac 0.1387953504260437 0.9308730049078944 0.0250450228943393 C
atom_frac 0.3612920068605375 0.4311987903355218 0.9746662974992827 C
atom_frac 0.3613160548863092 0.0690082764231335 0.5250749745873264 C
atom_frac 0.9740261499905499 0.4796498158623947 0.5295782922001422 C
atom_frac 0.9740057587533000 0.0200331598395351 0.9700984771593257 C
atom_frac 0.5260063016646228 0.5204141497942563 0.0295362593993076 C
atom_frac 0.5261272990371850 0.9798461053700291 0.4701637443877472 C
atom_frac 0.0260658016870963 0.5201125241374243 0.4701533070305430 C
atom_frac 0.0260376171488659 0.9795816628273782 0.0295311086108470 C
atom_frac 0.4739627141137673 0.4799607438504552 0.9701037243246305 C
atom_frac 0.4740915467589487 0.0203126925890444 0.5295855449578539 C
atom_frac 0.8146629969380113 0.3907778549162657 0.5814670791582088 C
atom_frac 0.8147859344683326 0.1090296851562300 0.9182972788022213 C
atom_frac 0.6853416923034102 0.6092523450512813 0.0814569678826800 C
atom_frac 0.6853382027265694 0.8908188014069581 0.4183881070838992 C
atom_frac 0.1852822270800303 0.6091510186264203 0.4183857917446119 C
atom_frac 0.1853803708297761 0.8907441791050560 0.0814613855305382 C
atom_frac 0.3147373673690552 0.3909663826144013 0.9183110584235196 C
atom_frac 0.3147329267204669 0.1092016954995572 0.5814543523250180 C
atom_frac 0.0314976614803655 0.4850718012194478 0.5969981144352233 C
atom_frac 0.0314489076433233 0.0146376294587967 0.9026680385403765 C
atom_frac 0.4685459408925396 0.5149460612459720 0.0969549156708212 C
atom_frac 0.4687137482365884 0.9852579644558400 0.4027333589282236 C
atom_frac 0.9686676526993593 0.5147141650090248 0.4027225539950123 C
atom_frac 0.9685825710995316 0.9850561394187450 0.0969506157359064 C
atom_frac 0.5314082048033555 0.4853475816061208 0.9026783030057430 C
atom_frac 0.5315596238114964 0.0149094772629752 0.5970081228281359 C
atom_frac 0.0695444598636286 0.0359350394243165 0.4147521707071746 C
atom_frac 0.0700617108817880 0.4637042774981878 0.0858102835645624 C
atom_frac 0.4304781805866824 0.9640983777943861 0.9145209428998626 C
atom_frac 0.4298561981871246 0.5364085344227619 0.5858725726488103 C
atom_frac 0.9298693764575602 0.9635927503549701 0.5859183962161367 C
atom_frac 0.9304565317307050 0.5359076476330955 0.9145854614000303 C
atom_frac 0.5701054883825165 0.0362960941720658 0.0857608024447174 C
atom_frac 0.5695397864475353 0.4640764050664359 0.4147053321340977 C
atom_frac 0.1466994384385103 0.0647951369778212 0.3552559912258246 C
atom_frac 0.1473657081017166 0.4348369397104221 0.1452592948432283 C
atom_frac 0.3533560673824567 0.9352193342594222 0.8550202725351568 C
atom_frac 0.3524519228011940 0.5652665847827905 0.6452902894956409 C
atom_frac 0.8524556468521211 0.9347291974498547 0.6453349414431244 C
atom_frac 0.8533230531798209 0.5648003408634423 0.8550916872897505 C
atom_frac 0.6473802754942497 0.0651676469094653 0.1452239973825016 C
atom_frac 0.6466962160897722 0.4352045267754080 0.3552126655766585 C
atom_frac 0.1771240294563370 0.0160081656206401 0.2989231064817446 C
atom_frac 0.1776486564315221 0.4835805633633115 0.2016373353785710 C
atom_frac 0.3229880746710592 0.9839785901030780 0.7986568296437611 C
atom_frac 0.3222343160343897 0.5165356923499828 0.7016882114281771 C
atom_frac 0.8221867033198862 0.9834700675421288 0.7017229984457886 C
atom_frac 0.8229399747369185 0.5160451920684821 0.7987334257371117 C
atom_frac 0.6776243445193373 0.0164285595066147 0.2016124236990180 C
atom_frac 0.6771130906638234 0.4839803651290781 0.2988647094829560 C
atom_frac 0.2008870029047074 0.1396887678077761 0.3575880495404107 C
atom_frac 0.2017537791315434 0.3599960962238029 0.1428354016374982 C
atom_frac 0.2992239757172470 0.8603169661100341 0.8573715763282054 C
atom_frac 0.2978963548619902 0.6400694942619013 0.6428044087501803 C
atom_frac 0.7979141582260355 0.8599243125728862 0.6428514201062399 C
atom_frac 0.7991649839801624 0.6397005388251530 0.8574442720520992 C
atom_frac 0.7017314645374242 0.1400198822931530 0.1428091942341041 C
atom_frac 0.7008879471202858 0.3603203696301947 0.3575720694845970 C
atom_frac 0.2864627781910941 0.1644325603099404 0.3055192986009416 C
atom_frac 0.2874340370856813 0.3352905514041353 0.1948668376868810 C
atom_frac 0.2137661831258555 0.8355026450972360 0.8052867899009684 C
atom_frac 0.2121060473593914 0.6647314728735195 0.6948067993274450 C
atom_frac 0.7120776485388518 0.8352646546174683 0.6948301256295579 C
atom_frac 0.7136939084135248 0.6644994366674837 0.8053477729376084 C
atom_frac 0.7873369747060933 0.1647299025122351 0.1948742034053979 C
atom_frac 0.7864859269737535 0.3355633116268352 0.3055139884630549 C
atom_frac 0.2628118240748590 0.0415996174167859 0.2469136777109640 C
atom_frac 0.2634915091298282 0.4580406127462808 0.2535907108614380 C
atom_frac 0.2374053735928712 0.9583235225546642 0.7466251466394311 C
atom_frac 0.2363071912451602 0.5420418760258630 0.7536130360836920 C
atom_frac 0.7362074414860799 0.9579639032067393 0.7536246852129623 C
atom_frac 0.7373390202405403 0.5416813770657782 0.7467056182688764 C
atom_frac 0.7633765739414285 0.0419775980012957 0.2535977844781598 C
atom_frac 0.7628191377454385 0.4583779499068186 0.2468701412524937 C
atom_frac 0.3191616015942742 0.1151108010367281 0.2504402760698455 C
atom_frac 0.3200417939659417 0.3845885458878229 0.2499811167493746 C
atom_frac 0.1811457446654572 0.8847897240395922 0.7501641897373049 C
atom_frac 0.1795606820981490 0.6154439550022842 0.7499446305011189 C
atom_frac 0.6794858946572261 0.8845604816658864 0.7499513079724239 C
atom_frac 0.6810574012436843 0.6152123909553071 0.7502334937627992 C
atom_frac 0.8198949558162595 0.1154370610977438 0.2500030496618209 C
atom_frac 0.8191780168149021 0.3848692681975407 0.2504224802319541 C
atom_frac 0.8763107135117992 0.3962819386894196 0.6445319404075747 N
atom_frac 0.8764111545090288 0.1035645262102207 0.8552170639401170 N
atom_frac 0.6237234998049458 0.6037007961669404 0.1445253852203052 N
atom_frac 0.6237409595537500 0.8963020373316936 0.3553032938587677 N
atom_frac 0.1236979591710110 0.6036786287609742 0.3553006307822528 N
atom_frac 0.1237521760487326 0.8962986567576651 0.1445280662702970 N
atom_frac 0.3763694401671813 0.3964153594925293 0.8552348353359562 N
atom_frac 0.3763807308177931 0.1037173074189113 0.6445167844253064 N
atom_frac 0.6128103289964884 0.2130275553262493 0.6748315002752818 O
atom_frac 0.6128033436482028 0.2870315053235972 0.8249394269510617 O
atom_frac 0.8872639488051206 0.7870548120302202 0.1748851999613379 O
atom_frac 0.8872611162338940 0.7130287343146621 0.3250069119469003 O
atom_frac 0.3872657576125106 0.7869871794748421 0.3249917011126087 O
atom_frac 0.3872529152271440 0.7129647892633245 0.1748999099353910 O
atom_frac 0.1127893358015228 0.2129772102986820 0.8249359192448722 O
atom_frac 0.1128000992822251 0.2870015588484948 0.6748345063498746 O
atom_frac 0.8308591148369615 0.1987273368260389 0.6542516443666601 O
atom_frac 0.8308634045346891 0.3011936551018978 0.8455542831845761 O
atom_frac 0.6691877993600100 0.8012457882494601 0.1543333962954350 O
atom_frac 0.6692244554090506 0.6986623469195694 0.3455752486737751 O
atom_frac 0.1692258940216291 0.8013196679030018 0.3455684335581992 O
atom_frac 0.1691829402544300 0.6987542334117692 0.1543485541720813 O
atom_frac 0.3308476399993623 0.1987724033251083 0.8455298827939473 O
atom_frac 0.3308595625746946 0.3013022540553152 0.6542599247403942 O
atom_frac 0.8297738372962015 0.3563936275323983 0.6998164306858499 O
atom_frac 0.8298975041450161 0.1435175729799099 0.7999660793109271 O
atom_frac 0.6702702213301208 0.6435540538008196 0.1998266396026267 O
atom_frac 0.6702546779208590 0.8563535012716628 0.3000512920757075 O
atom_frac 0.1702150068716577 0.6436303266407178 0.3000458074320136 O
atom_frac 0.1702935839448045 0.8564435710292742 0.1998316187084512 O
atom_frac 0.3298524605676079 0.3564583761490779 0.7999845904715173 O
atom_frac 0.3298105036267954 0.1436157096018250 0.6997901271760583 O
atom_frac 0.0637910839484377 0.3693226008448108 0.7959709332499899 O
atom_frac 0.0637492554038559 0.1306362057025012 0.7038491449902011 O
atom_frac 0.4362487029133888 0.6306164379512184 0.2960231133697561 O
atom_frac 0.4363398843309625 0.8693272558121663 0.2038880705019324 O
atom_frac 0.9363137525228282 0.6306909806724404 0.2038887023417928 O
atom_frac 0.9362604077268414 0.8694027308106699 0.2960162157830482 O
atom_frac 0.5637242790627610 0.3693844659327469 0.7038594242248806 O
atom_frac 0.5638155129440890 0.1306909358726926 0.7959569912125630 O
atom_frac 0.0688733884696759 0.0824688525805612 0.4693783443347074 O
atom_frac 0.0692774271677621 0.4171560609053345 0.0311997278965777 O
atom_frac 0.4311323423111943 0.9175664175738165 0.9691511839151162 O
atom_frac 0.4306435120315300 0.5829387626267817 0.5312537793975451 O
atom_frac 0.9307258370101648 0.9170479877535629 0.5313093985166262 O
atom_frac 0.9311505992157547 0.5824604743168464 0.9692001810985501 O
atom_frac 0.5693650757059886 0.0828487991264950 0.0311492988956417 O
atom_frac 0.5688595422034338 0.4175473289036091 0.4693355759054540 O
atom_frac 0.0128088927410914 0.9711365681078449 0.4153074766311705 O
atom_frac 0.0133092919190076 0.5284959972310689 0.0852774409048678 O
atom_frac 0.4872038233860678 0.0288950985807901 0.9150581439168519 O
atom_frac 0.4866383686830956 0.4716231741641865 0.5853628752192249 O
atom_frac 0.9866158485005200 0.0283848821315189 0.5854026475506515 O
atom_frac 0.9871405449817560 0.4710974876847304 0.9151396445525677 O
atom_frac 0.5133451469604395 0.9715097458802406 0.0852256832939062 O
atom_frac 0.5128101589916412 0.5288773232642043 0.4152472995402334 O
