#=======================================================
# FHI-aims file: ./geometry.in
# Created using the Atomic Simulation Environment (ASE)
# Fri Jan 14 15:06:22 2022
#=======================================================
lattice_vector 7.7717808130000003 0.0392213060000000 0.3956839190000000 
lattice_vector 1.0051208890000001 9.1777240560000006 2.0432865690000002 
lattice_vector -0.0729793490000000 -0.0318288060000000 13.1964558059999995 
atom_frac 0.6446671690974386 0.8270338919656551 0.5207086224920658 U
atom_frac 0.3557550647131720 0.1726085961197796 0.4793532982369869 U
atom_frac 0.1354682799392678 0.8855176646611013 0.4228878655996269 U
atom_frac 0.8647688066094833 0.1145338414882318 0.5770670202298190 U
atom_frac 0.8234712044354781 0.6471463870255930 0.7081189300547165 H
atom_frac 0.1769261600048750 0.3536665840615142 0.2919868060912805 H
atom_frac 0.9610942020808507 0.6350456840636339 0.6192321849726098 H
atom_frac 0.0393843257768580 0.3651190707925878 0.3810002803864379 H
atom_frac 0.3465643628909091 0.5780119846124876 0.3850977872039890 H
atom_frac 0.6514253064863740 0.4217289074821978 0.6158349324127812 H
atom_frac 0.4006524685117727 0.7096565473926899 0.3005478612983765 H
atom_frac 0.5977153157016986 0.2884710197808076 0.6993851104306827 H
atom_frac 0.0429362687891270 0.9266752674189862 0.9037068631514202 H
atom_frac 0.9570726894810166 0.0749498301840745 0.0976002773039042 H
atom_frac 0.1622946521409930 0.8325924060046503 0.0822764650849450 H
atom_frac 0.8387589452758065 0.1685836884506529 0.9187210539939767 H
atom_frac 0.6787942527644121 0.8357661801287578 0.9533682682792558 H
atom_frac 0.3214669143750726 0.1633410663659589 0.0464229269908216 H
atom_frac 0.4806873995670884 0.7802961600704351 0.1048115556589266 H
atom_frac 0.5203679813340616 0.2194586761589008 0.8954367722737331 H
atom_frac 0.9100437471993246 0.6597741193248794 0.0040187098593734 H
atom_frac 0.0889159460921150 0.3395737039731728 0.9950467909349144 H
atom_frac 0.7157846138318933 0.4636426062013043 0.0184709313133169 H
atom_frac 0.2835781656054195 0.5352160781732420 0.9814311544284209 H
atom_frac 0.9715602996590537 0.7477144890366247 0.1631577653760558 H
atom_frac 0.0275107572133351 0.2527008679794420 0.8353389961903303 H
atom_frac 0.6030955868798743 0.3473374515530878 0.1920110113073363 H
atom_frac 0.3972515338746306 0.6520335959651716 0.8082346217706373 H
atom_frac 0.6006431460562426 0.9361111874063964 0.7536623390355999 C
atom_frac 0.3987763440470077 0.0633927359925224 0.2463669893759716 C
atom_frac 0.2209332992620646 0.9964041849589830 0.7247507284145059 C
atom_frac 0.7787181160277969 0.0043330810330673 0.2758558882242781 C
atom_frac 0.7295941028884558 0.4776169166402154 0.2740253268265818 C
atom_frac 0.2707089771859331 0.5224322950808187 0.7256634705580680 C
atom_frac 0.4743790898589852 0.9123870812849545 0.8436581546881923 C
atom_frac 0.5253644380221090 0.0873364629317450 0.1566328375553709 C
atom_frac 0.8322440549022901 0.5925749808780907 0.2655253776279096 C
atom_frac 0.1678236228542360 0.4077655027067947 0.7336601022695816 C
atom_frac 0.1822260526582369 0.9055827869733617 0.9160278421198385 C
atom_frac 0.8178827790908301 0.0954269040371472 0.0848358409109622 C
atom_frac 0.2487629352935272 0.8512507651520309 0.0148114959386376 C
atom_frac 0.7518566734259339 0.1493912581533436 0.9859164797646898 C
atom_frac 0.5393861685484539 0.8545287166864171 0.9426740558391558 C
atom_frac 0.4608480154314237 0.1450124714851951 0.0574796617378652 C
atom_frac 0.8649934380222034 0.6531675495987272 0.3568372898268137 C
atom_frac 0.1355574656079313 0.3475135138492221 0.6421816978700720 C
atom_frac 0.6870743383512237 0.3848631729228841 0.3768898296737718 C
atom_frac 0.3135445026681866 0.6151173724395066 0.6228675742771727 C
atom_frac 0.4275599564232166 0.8232117265560247 0.0279471959700004 C
atom_frac 0.5731223880485959 0.1767205661797675 0.9724273029622523 C
atom_frac 0.2935947923789613 0.9358734813850444 0.8295546704425618 C
atom_frac 0.7060806476334492 0.0645977903302324 0.1710431556796692 C
atom_frac 0.8563910191942343 0.6104730476208005 0.0792347946873235 C
atom_frac 0.1428480778088358 0.3891617032715259 0.9199658309594980 C
atom_frac 0.7486123112115806 0.5003112283423404 0.0873406428696057 C
atom_frac 0.2509854375620152 0.4989543418347394 0.9123572700303555 C
atom_frac 0.8944132483682029 0.6579916728213462 0.1676487646087921 C
atom_frac 0.1049109548444350 0.3421887347020203 0.8312761348826496 C
atom_frac 0.6841937100074490 0.4352750558694679 0.1844028360163108 C
atom_frac 0.3158966025637327 0.5643160130826317 0.8155042249451866 C
atom_frac 0.3798859720944778 0.9239325835660277 0.4793746354419143 O
atom_frac 0.6206210385581201 0.0757860716177987 0.5207616100885915 O
atom_frac 0.6158198175946625 0.8388838980771139 0.6983670414820580 O
atom_frac 0.3829682640694117 0.1606259340470970 0.3016454464189522 O
atom_frac 0.8405256807108830 0.6177997226793437 0.6416166396059069 O
atom_frac 0.1600219541772319 0.3823074246700386 0.3587416446948878 O
atom_frac 0.8172378418277121 0.3239635659815859 0.4326693324869098 O
atom_frac 0.1834029243169725 0.6760658967835765 0.5670821132209483 O
atom_frac 0.6919228628924757 0.0410485831215226 0.7402315724010508 O
atom_frac 0.3076411352529362 0.9583690875874069 0.2596112710495859 O
atom_frac 0.3214371679152991 0.0641481082090678 0.6569778765761356 O
atom_frac 0.6784790549887491 0.9359838996939511 0.3434871820248021 O
atom_frac 0.9991334719599934 0.7189162206973521 0.3550875449522692 O
atom_frac 0.0013922671526174 0.2820380569286840 0.6435072153802466 O
atom_frac 0.5304387717085678 0.3635178620735715 0.3981025526918883 O
atom_frac 0.4702702870572679 0.6360030641599651 0.6015065868957025 O
atom_frac 0.0648935110798590 0.9804099930298096 0.7084018806092374 O
atom_frac 0.9344839485483905 0.0209129189903834 0.2923352072114794 O
atom_frac 0.3612566560515093 0.6817560092520409 0.3722252190846262 O
atom_frac 0.6388110967481425 0.3176363302639729 0.6281603785248322 O
atom_frac 0.9019561478584563 0.8941179713597127 0.5282608692175399 O
atom_frac 0.0981979232149968 0.1057535383748700 0.4721585831770128 O
atom_frac 0.7522029928838664 0.6433346492467890 0.4307503777741104 O
atom_frac 0.2490638516021804 0.3572095053715003 0.5686320755198720 O
