#=======================================================
# FHI-aims file: ./geometry.in
# Created using the Atomic Simulation Environment (ASE)
# Fri Jan 14 15:06:22 2022
#=======================================================
lattice_vector 3.9941718260000001 -0.0770462830000000 0.0002965900000000 
lattice_vector -1.9231496790000000 8.4394078179999994 -0.0001075230000000 
lattice_vector 0.0012876390000000 0.0000901030000000 17.9541817759999986 
atom_frac 0.4999968457921751 0.5000063912313661 0.4999974702340708 Cu
atom_frac 0.9999884728247465 0.0000030090625884 0.0000018610562620 Cu
atom_frac 0.7529010587625750 0.5159496248537536 0.6540332675713074 H
atom_frac 0.7471249263543099 0.9840594859003531 0.1540440134644996 H
atom_frac 0.2471216638887981 0.4840610528329349 0.3459594445114362 H
atom_frac 0.2528661185092673 0.0159426080133684 0.8459631803961187 H
atom_frac 0.7814276152567456 0.7545461511896506 0.8146876059259823 H
atom_frac 0.7186476916765443 0.7454789380799979 0.3146981067088106 H
atom_frac 0.2185806851182121 0.2454501757704151 0.1853101190688236 H
atom_frac 0.2813846079799872 0.2545152380897946 0.6853046306364304 H
atom_frac 0.6428168127878208 0.9663343693567866 0.7415349480269100 H
atom_frac 0.8571912685942348 0.5336715247523074 0.2415327638824394 H
atom_frac 0.3571669119640005 0.0336629181076162 0.2584677901393846 H
atom_frac 0.1428226340445278 0.4663260382640786 0.7584655180005342 H
atom_frac 0.4448253647810390 0.0258592435884282 0.6152784341570623 H
atom_frac 0.0551830829972744 0.4741436073032972 0.1152580852979170 H
atom_frac 0.5551497974000910 0.9741462601142317 0.3847254181465019 H
atom_frac 0.9448259185924711 0.5258645752369588 0.8847390827829995 H
atom_frac 0.4199923031050474 0.8275856362044677 0.5122758883541962 H
atom_frac 0.0800130993201620 0.6724291241235817 0.0122605737904351 H
atom_frac 0.5799731517009405 0.1724257034922374 0.4877251792781364 H
atom_frac 0.9199831056833715 0.3275836812433965 0.9877382654494796 H
atom_frac 0.6900139925141318 0.6308753900529991 0.6471964764162763 C
atom_frac 0.8099965980803318 0.8691289865540737 0.1471998695032610 C
atom_frac 0.3099936411937705 0.3691351498576977 0.3527984638081278 C
atom_frac 0.1899929507301294 0.1308647992986635 0.8528056534123960 C
atom_frac 0.7218480105563998 0.7374856321480864 0.7069297482958773 C
atom_frac 0.7781398642992909 0.7625255560166408 0.2069334735988591 C
atom_frac 0.2781536692725623 0.2625177438742838 0.2930679768505087 C
atom_frac 0.2218376858781212 0.2374693052731445 0.7930664797883721 C
atom_frac 0.6291971942312458 0.8817816067334050 0.6960862017624193 C
atom_frac 0.8708278664172937 0.6182194882980667 0.1960806812529370 C
atom_frac 0.3707907652689926 0.1182192741730077 0.3039137514889062 C
atom_frac 0.1291742573677723 0.3817744124035585 0.8039203856692154 C
atom_frac 0.5203447921750453 0.9151144756155605 0.6256422156651666 C
atom_frac 0.9796459258195965 0.5848925498399210 0.1256276874299900 C
atom_frac 0.4796290028571377 0.0848933854880158 0.3743571808886372 C
atom_frac 0.0203507251555237 0.4151107802901350 0.8743683668792812 C
atom_frac 0.5045835585402970 0.8060500511309385 0.5680658211957947 C
atom_frac 0.9954193201322282 0.6939571298301958 0.0680531922969365 C
atom_frac 0.4954047509260489 0.1939567575388992 0.4319358030051674 C
atom_frac 0.0045717258307008 0.3060449641292422 0.9319506597238173 C
atom_frac 0.9358242103105781 0.6767458164257718 0.4199971518455853 Br
atom_frac 0.5643466576196160 0.8232079863280076 0.9200208252484998 Br
atom_frac 0.0642763997328401 0.3232134359148873 0.5800000144289967 Br
atom_frac 0.4356644721425765 0.1767682227917646 0.0799841402320780 Br
atom_frac 0.5834442786447621 0.6651604127966235 0.5796147441380626 N
atom_frac 0.9165347631612800 0.8348439339766996 0.0796147631628443 N
atom_frac 0.4165418692007563 0.3348523008085920 0.4203790825076794 N
atom_frac 0.0834394752773306 0.1651544517832804 0.9203896460866544 N
atom_frac 0.8414678076931282 0.6925571711883904 0.7720265433324442 O
atom_frac 0.6585582753271026 0.8074541605059338 0.2720486825316613 O
atom_frac 0.1585595940292137 0.3074476246347970 0.2279656116644730 O
atom_frac 0.3414454375849515 0.1925326451344063 0.7279585110281275 O
