#=======================================================
# FHI-aims file: ./geometry.in
# Created using the Atomic Simulation Environment (ASE)
# Tue Nov 30 12:20:15 2021
#=======================================================
lattice_vector 6.3470769279999999 0.0001726560000000 0.8550708290000000 
lattice_vector 2.6435961739999998 15.3984491020000007 4.3733942670000001 
lattice_vector -0.0107055190000000 0.1462222610000000 24.1171045220000018 
atom_frac 0.0454253974483763 0.3140063675391501 0.5095057911674203 Co
atom_frac 0.8685602872409606 0.1861154122836410 0.9904191996299402 Co
atom_frac 0.9545666064340568 0.6860024165973114 0.4904991349112748 Co
atom_frac 0.1314359069594744 0.8138908460138695 0.0095781576907044 Co
atom_frac 0.7973062346057063 0.4753958148518437 0.5351037623114221 Co
atom_frac 0.8080812008739926 0.0246391362392657 0.9648735676071496 Co
atom_frac 0.2026448580878506 0.5246279537784989 0.4648961651931173 Co
atom_frac 0.1919127497224764 0.9753611955046323 0.0351324075637720 Co
atom_frac 0.8064941930208108 0.9999073134318481 0.3411168791921638 H
atom_frac 0.1479374376648579 0.5000769633664034 0.1589688880102926 H
atom_frac 0.1935910920349216 0.0000742062029815 0.6588867812455843 H
atom_frac 0.8520342495119310 0.4999351654328237 0.8410257857884743 H
atom_frac 0.9141938687791084 0.8206380365646166 0.3563008900394281 H
atom_frac 0.0916573991524317 0.6794160618468369 0.1436889788644820 H
atom_frac 0.0858529262089149 0.1793375723087678 0.6437097679972296 H
atom_frac 0.9083271491692386 0.3205954403302372 0.8563032793572487 H
atom_frac 0.7985635609420426 0.8699966058172991 0.5206708547574833 H
atom_frac 0.1890758695566320 0.6298601110362511 0.9793891351803764 H
atom_frac 0.2014569670421480 0.1299777446945498 0.4793355724006290 H
atom_frac 0.8108760385998578 0.3701578858619429 0.0206031025445625 H
atom_frac 0.2396297255754121 0.4591937606759089 0.7221668851511323 H
atom_frac 0.4207605467797250 0.0405017404967580 0.7780851069266885 H
atom_frac 0.7603250689321470 0.5408098030950016 0.2778407214884808 H
atom_frac 0.5792650996590751 0.9594980851476153 0.2219057383675462 H
atom_frac 0.3720649082398566 0.4070781102029812 0.6216167062431167 H
atom_frac 0.4006691910155169 0.0927174047686208 0.8785706292763604 H
atom_frac 0.6278784648037004 0.5929339423135646 0.3783860342040909 H
atom_frac 0.5993451111005471 0.9072869630426510 0.1214206238409901 H
atom_frac 0.7647310490667606 0.5799950935902133 0.6351497774844219 H
atom_frac 0.9803884306562762 0.9201470866209719 0.8647975315364390 H
atom_frac 0.2352649954975448 0.4199889044339783 0.3648665489832297 H
atom_frac 0.0196131458541728 0.0798500462025444 0.1352033629849245 H
atom_frac 0.8124623146316522 0.9826298596422735 0.5387267517334918 H
atom_frac 0.3343682906291151 0.5172995925707581 0.9614187447302738 H
atom_frac 0.1876141292637072 0.0173653144274866 0.4612751607162692 H
atom_frac 0.6655206085467853 0.4827145673398618 0.0385673006178351 H
atom_frac 0.7162409872097940 0.1197891055966949 0.5689276764182338 H
atom_frac 0.4052285563668364 0.3802061789571169 0.9311478224327772 H
atom_frac 0.2838012317342020 0.8801936892373803 0.4310785236123920 H
atom_frac 0.5946710001991207 0.6198164335111330 0.0688371415587241 H
atom_frac 0.5391181913361649 0.2557209237798546 0.3976910798079130 H
atom_frac 0.1919705796530167 0.2442367193104644 0.1023111247471036 H
atom_frac 0.4608915343470769 0.7442528515580593 0.6023075417778115 H
atom_frac 0.8080526690739802 0.7557688893828355 0.8976862204426864 H
atom_frac 0.6299253561049198 0.1188851387999819 0.3670062304126843 H
atom_frac 0.1153841730669782 0.3810197336005173 0.1330652623747710 H
atom_frac 0.3700999793667846 0.8810852587869252 0.6330061334845068 H
atom_frac 0.8846277639633088 0.6189865456063899 0.8669298744189573 H
atom_frac 0.6105504407371283 0.6875125853773697 0.6759369688945113 H
atom_frac 0.9739100891991656 0.8124050970889061 0.8241789589805392 H
atom_frac 0.3894715808148206 0.3124695365587300 0.3240717278308836 H
atom_frac 0.0261422494495349 0.1875836268665907 0.1758183434873715 H
atom_frac 0.5508899196914284 0.7769982630755764 0.7463752679786991 H
atom_frac 0.0742301379851966 0.7228355536563953 0.7537887929891481 H
atom_frac 0.4491424647232590 0.2229930013004733 0.2536280862945829 H
atom_frac 0.9258214598242348 0.2771511829509024 0.2462126279220485 H
atom_frac 0.3458154127751314 0.4833345367188926 0.8041048550707044 H
atom_frac 0.6338711426807889 0.0166521587371520 0.6959483384783455 H
atom_frac 0.6541326437368228 0.5166625155483900 0.1959045859033778 H
atom_frac 0.3661435073056865 0.9833249063854125 0.3040457801558176 H
atom_frac 0.2836833385341321 0.5743935704076435 0.8738126538158750 H
atom_frac 0.7325627247032570 0.9255281391003010 0.6262765711541787 H
atom_frac 0.7162716102756548 0.4256171729777449 0.1261911575412640 H
atom_frac 0.2674444044506998 0.0744443145975069 0.3737244553748765 H
atom_frac 0.9188285948696803 0.4505946537782749 0.4302526609956701 H
atom_frac 0.7993584424902735 0.0495447998397793 0.0696809589559066 H
atom_frac 0.0811473626530557 0.5494375207669792 0.5697510802515068 H
atom_frac 0.2006358377968382 0.9504698556420763 0.9303211631296550 H
atom_frac 0.8163333852343940 0.9470575784987574 0.3800456619019457 C
atom_frac 0.1436777945512517 0.5529176428636760 0.1200296850328968 C
atom_frac 0.1837227372497878 0.0529258753486985 0.6199595110303803 C
atom_frac 0.8562870448626539 0.4470957926639516 0.8799641653039955 C
atom_frac 0.8713933086447407 0.8586082189900994 0.3880024125667986 C
atom_frac 0.1184038563664912 0.6413729088336598 0.1120312644253332 C
atom_frac 0.1286598878139245 0.1413784786963106 0.6120031051570152 C
atom_frac 0.8815696724428647 0.3586385779181357 0.8879626312203256 C
atom_frac 0.8138040876064494 0.8813963570994828 0.4738850834538511 C
atom_frac 0.1691023286644153 0.6185001829252171 0.0261739703007748 C
atom_frac 0.1862239590420316 0.1185864252256366 0.5261224506101810 C
atom_frac 0.8308551651306927 0.3815119688560600 0.9738183000518034 C
atom_frac 0.3708528541683123 0.4743067542752897 0.6900286925995472 C
atom_frac 0.5350951429621915 0.0254853827804311 0.8101519030920912 C
atom_frac 0.6291053081655846 0.5257000672191552 0.3099777892350772 C
atom_frac 0.4649289259135544 0.9745144462938242 0.1898385828691218 C
atom_frac 0.4369644303481409 0.4502083212822541 0.6394692180804213 C
atom_frac 0.5266160629037345 0.0496223504541931 0.8606886388289964 C
atom_frac 0.5629786249137185 0.5498082769961313 0.3605335385924917 C
atom_frac 0.4733993353198189 0.9503793958483372 0.1393051240275226 C
atom_frac 0.6384608003057580 0.5413281369827275 0.6438554598951852 C
atom_frac 0.8240029149188359 0.9587151936997887 0.8561666096273653 C
atom_frac 0.3615063738911103 0.4586721820871632 0.3561518815735311 C
atom_frac 0.1759978879516382 0.0412800069837473 0.1438325894801409 C
atom_frac 0.7242465424898653 0.0409903496508193 0.4512113358558807 C
atom_frac 0.2164407122113516 0.4589269639591222 0.0488922418756346 C
atom_frac 0.2757956881686711 0.9589924254660289 0.5487969405522932 C
atom_frac 0.7835147061647801 0.5410826007772799 0.9510989126214964 C
atom_frac 0.7482972285129322 0.0421464844871977 0.5079958775179918 C
atom_frac 0.2986565891888516 0.4577948317503769 0.9921062517364091 C
atom_frac 0.2517577021539238 0.9578473854403667 0.4920066195318782 C
atom_frac 0.7012732938257785 0.5422192941915396 0.0078833224131571 C
atom_frac 0.6959234355457155 0.1194241146656836 0.5248427488913662 C
atom_frac 0.3402336661071672 0.3805539887510321 0.9752279119131088 C
atom_frac 0.3041207000236028 0.8805729847026883 0.4751616184889612 C
atom_frac 0.6597096460208007 0.6194581662950680 0.0247640313708359 C
atom_frac 0.6171814830850978 0.1969656115005023 0.4853467310225809 C
atom_frac 0.2992501786244189 0.3030240856256016 0.0146856809665579 C
atom_frac 0.3828465334746767 0.8030399277514848 0.5146579212989337 C
atom_frac 0.7007428393637409 0.6969822150226721 0.9853072202084475 C
atom_frac 0.5946755648051011 0.1952600242081957 0.4287704268950136 C
atom_frac 0.2183522308696978 0.3047002876796440 0.0712643130139057 C
atom_frac 0.4053492589476376 0.8047266957816461 0.5712327755894862 C
atom_frac 0.7816597014747657 0.6953059994141597 0.9287299932288062 C
atom_frac 0.6477241064249383 0.1181684404298622 0.4114110308054819 C
atom_frac 0.1770773182533105 0.3817549373611229 0.0886694957215610 C
atom_frac 0.3523013577517061 0.8818129965944838 0.5886013998549373 C
atom_frac 0.8229151692529085 0.6182526444656916 0.9113252651501822 C
atom_frac 0.5653594349951518 0.2803200418950453 0.5009393878135739 C
atom_frac 0.3464253103838146 0.2196997339175938 0.9990614024128631 C
atom_frac 0.4346455913631218 0.7196952834034035 0.4990605732321284 C
atom_frac 0.6535695166109007 0.7803097963365461 0.0009333368282114 C
atom_frac 0.4791724999632265 0.5800516264397403 0.7348526892778579 C
atom_frac 0.7943828194162564 0.9198997070460565 0.7652325055113064 C
atom_frac 0.5208092273946717 0.4199402364591834 0.2651560842942047 C
atom_frac 0.2056385546830626 0.0800877096858770 0.2347657172116371 C
atom_frac 0.5417826192926044 0.6618547984210039 0.7195144628474565 C
atom_frac 0.9232926432729158 0.8380656550720713 0.7805873978641314 C
atom_frac 0.4582333211077129 0.3381305742138139 0.2804938600033892 C
atom_frac 0.0767379110490509 0.1619224151891174 0.2194103808634935 C
atom_frac 0.5092837874863462 0.7121594478711446 0.7589888009329826 C
atom_frac 0.9806259170866131 0.7877209395318657 0.7411313048334024 C
atom_frac 0.4907373670586992 0.2878285325528863 0.2410184495107899 C
atom_frac 0.0194109918281313 0.2122632256392833 0.2588673713846958 C
atom_frac 0.3900697735348829 0.5478810140709102 0.7910884580707389 C
atom_frac 0.7295806465841322 0.9520877557523308 0.7089836063619115 C
atom_frac 0.6098987702106201 0.4521160290989029 0.2089219167530558 C
atom_frac 0.2704382220099221 0.0478905526550193 0.2910163568966340 C
atom_frac 0.3574082815967330 0.5987841075402898 0.8305280429914176 C
atom_frac 0.7873186737799360 0.9011458894214995 0.6695625707334327 C
atom_frac 0.6425677993816381 0.4012175194501779 0.1694783308660490 C
atom_frac 0.2127052452849867 0.0988278629343711 0.3304384542984735 C
atom_frac 0.4136307095285757 0.6821081031416015 0.8149352572826984 C
atom_frac 0.9110444195742107 0.8177709556082533 0.6851779270952179 C
atom_frac 0.5863753869708077 0.3178857548089695 0.1850685587087639 C
atom_frac 0.0889833675158869 0.1822086410024610 0.3148231449296404 C
atom_frac 0.3646420630469931 0.7390353231706188 0.8539686986308792 C
atom_frac 0.9578046449628416 0.7608489982439366 0.6461400259315440 C
atom_frac 0.6353615140840746 0.2609683393330613 0.1460284530059184 C
atom_frac 0.0422252034887833 0.2391332090723140 0.3538596702957050 C
atom_frac 0.7083841628918250 0.3191924341632272 0.5160585091627823 N
atom_frac 0.5435225279467562 0.1808498380510741 0.9839071715629045 N
atom_frac 0.2915992334419499 0.6808294170553921 0.4839381328601604 N
atom_frac 0.4564663907474226 0.8191512017516802 0.0160926339624226 N
atom_frac 0.6019882036807401 0.3975701309115039 0.5203218531032476 N
atom_frac 0.5198573212232559 0.1024789635999568 0.9796260672972608 N
atom_frac 0.3979807258302090 0.6024523976804941 0.4796718618575965 N
atom_frac 0.4801476324851706 0.8975214111733224 0.0203753635211541 N
atom_frac 0.4026518603092413 0.4065715696352611 0.5084647021806745 N
atom_frac 0.3176480870103476 0.0934551776663923 0.9915067551690980 N
atom_frac 0.5973432424695203 0.5934373022841015 0.4915309759518251 N
atom_frac 0.6823483456623053 0.9065543018365292 0.0084933267111253 N
atom_frac 0.3738509295697554 0.3329680507173266 0.4972831792758895 N
atom_frac 0.2039895971336776 0.1670230605080363 0.0027265607581057 N
atom_frac 0.6261510303435143 0.6670394986998577 0.5027149834205316 N
atom_frac 0.7959996979345975 0.8329884077187160 0.9972692671157475 N
atom_frac 0.8695001155851260 0.8185476287019923 0.4468257911678037 N
atom_frac 0.1351755735586123 0.6813899086549784 0.0531986992461313 N
atom_frac 0.1305304435973440 0.1814442501173801 0.5531812481871511 N
atom_frac 0.8647903502482421 0.3186209250811275 0.9467955844523742 N
atom_frac 0.6039969223934278 0.4924383456493615 0.6111854264966040 N
atom_frac 0.7078718505624125 0.0075498267373248 0.8888671126083522 N
atom_frac 0.3959485049829397 0.5075763294030581 0.3888146923264699 N
atom_frac 0.2921291626653968 0.9924486424729508 0.1111298277526060 N
atom_frac 0.2650035259776187 0.7173813430520187 0.9074141442823205 N
atom_frac 0.8897973815156491 0.7825487747653810 0.5927202362579962 N
atom_frac 0.7349826536192907 0.2826262485508765 0.0925795945328431 N
atom_frac 0.1102234130753601 0.2174438224024939 0.4072795554522982 N
atom_frac 0.2451817652665723 0.7880624015093148 0.9272110014500327 N
atom_frac 0.9602953079354180 0.7118693163336334 0.5729002126042245 N
atom_frac 0.7548133468838217 0.2119464546362764 0.0727863377845068 N
atom_frac 0.0397227428725131 0.2881298405212717 0.4270926818448899 N
atom_frac 0.3291346188907339 0.8507182254833057 0.8872238522204227 N
atom_frac 0.0669627963553835 0.6491735933225727 0.6128472006828573 N
atom_frac 0.6708847547823638 0.1492815507854814 0.1127722001498839 N
atom_frac 0.9330604988803870 0.3508243036117022 0.3871415898645054 N
atom_frac 0.4048113383884839 0.8215327278837919 0.8406395175889259 N
atom_frac 0.0670636473390048 0.6783303161141915 0.6594315624141558 N
atom_frac 0.5952098792600964 0.1784664023941289 0.1593561719037879 N
atom_frac 0.9329724342235793 0.3216558240612599 0.3405642971296672 N
atom_frac 0.7803857815701889 0.9610550188821776 0.4352857683801046 N
atom_frac 0.1767281504137586 0.5388707322027103 0.0648050739931492 N
atom_frac 0.2196500431262933 0.0389355645255591 0.5647209045526935 N
atom_frac 0.8232293363526253 0.4611414314088975 0.9351859505329043 N
atom_frac 0.4996619327008533 0.5324008512707079 0.6926874165616964 N
atom_frac 0.7249207588729264 0.9675327560942081 0.8074074223690956 N
atom_frac 0.5003095394130738 0.4675929441167100 0.3073230287461186 N
atom_frac 0.2751042051246131 0.0324611671707800 0.1925894931798666 N
atom_frac 0.0040517586665913 0.3535342682630684 0.5995657855261098 Cl
atom_frac 0.9573673773923802 0.1465481868027751 0.9003410862670335 Cl
atom_frac 0.9958971771499988 0.6465135734501218 0.4004294383955481 Cl
atom_frac 0.0426196555033583 0.8534612028629882 0.0996684673293372 Cl
atom_frac 0.9898972416401436 0.4442680590827450 0.4651138096669030 O
atom_frac 0.8990725770235672 0.0558519360485192 0.0348207940365199 O
atom_frac 0.0100754507948010 0.5557530513372770 0.5348924683550819 O
atom_frac 0.1009335081303604 0.9441646472813615 0.9651834624165047 O
