#=======================================================
# FHI-aims file: ./geometry.in
# Created using the Atomic Simulation Environment (ASE)
# Fri Jan 14 15:06:22 2022
#=======================================================
lattice_vector 7.7469782819999997 0.0000000000000000 0.0000000000000000 
lattice_vector -0.0026755910000000 11.2946192120000006 6.8006500000000001 
lattice_vector -0.0029852220000000 -11.5295543489999996 6.3732585710000000 
atom_frac 0.4448015803489085 0.9666364868103442 0.6571902786169304 Mn
atom_frac 0.4454211615729803 0.6909977653444342 0.0332429705699369 Mn
atom_frac 0.4458821050247224 0.3425991700105229 0.3089648619354506 Mn
atom_frac 0.9444854754057134 0.0327319594201256 0.3419806957287079 Mn
atom_frac 0.9443660483620917 0.3091432304772537 0.9668045036948880 Mn
atom_frac 0.9464651243418416 0.6578856804007457 0.6915833868154310 Mn
atom_frac 0.0779087651723955 0.6663882385550294 0.3331508994679950 Cr
atom_frac 0.5747529988036816 0.3329556754026084 0.6659960424934183 Cr
atom_frac 0.0841182051115013 0.1478112345748173 0.7424659575433310 H
atom_frac 0.0628316440402870 0.0845898789768354 0.8203925482213419 H
atom_frac 0.7883956504533245 0.1484972585954124 0.7090473527773540 H
atom_frac 0.6977853149919824 0.8556727484419469 0.5018891180507056 H
atom_frac 0.6998280689147479 0.9900761538047504 0.5272010490703352 H
atom_frac 0.9629458469201637 0.9557168247657157 0.5940782620817090 H
atom_frac 0.8493614748864999 0.9058272335119638 0.6770941389468491 H
atom_frac 0.0849419309931108 0.5939539358909655 0.8522370629363748 H
atom_frac 0.0654749603061475 0.7352224923428421 0.9164949283600451 H
atom_frac 0.7896400894862765 0.5609307783805804 0.8521317692519048 H
atom_frac 0.6988951482341436 0.6474453044895723 0.1451268734382865 H
atom_frac 0.7012374793996586 0.5380587120730951 0.0106854317899447 H
atom_frac 0.9641731468817412 0.6399764308315666 0.0455958725709991 H
atom_frac 0.8497427893780412 0.7723523463654229 0.0946112587419137 H
atom_frac 0.0851403458720270 0.2574479073883181 0.4058609673220558 H
atom_frac 0.0652979112542340 0.1800732808666012 0.2645357353216582 H
atom_frac 0.7899530244366770 0.2909687628665694 0.4389659154175051 H
atom_frac 0.7014044698881962 0.4977523775798075 0.3528760473716375 H
atom_frac 0.7028925167881040 0.4723951798951375 0.4619843502417567 H
atom_frac 0.9657478284917218 0.4047512719048925 0.3599411881950446 H
atom_frac 0.8509614479906346 0.3217143494898734 0.2274806981374695 H
atom_frac 0.5851730233691086 0.8524571751157735 0.2585658644931428 H
atom_frac 0.5654570682848784 0.9165521710829693 0.1813294509943758 H
atom_frac 0.2902345458200699 0.8521850062507921 0.2916448495747943 H
atom_frac 0.1987360351508443 0.1447282950623574 0.4979577534520486 H
atom_frac 0.2012021288828620 0.0103779234965273 0.4725798178467429 H
atom_frac 0.4637968313694998 0.0459541363093692 0.4056734830549970 H
atom_frac 0.3487067343142556 0.0943375580908068 0.3219488528060523 H
atom_frac 0.5844047579315585 0.4065031862052776 0.1485086625921355 H
atom_frac 0.5652656781095047 0.2651256508885425 0.0842698026922477 H
atom_frac 0.2895020020978194 0.4391766810152403 0.1476157123978297 H
atom_frac 0.1999092637716728 0.3520795439300670 0.8544436396086041 H
atom_frac 0.2024436337564026 0.4615809498099422 0.9886809774746579 H
atom_frac 0.4644272739817552 0.3588109387842450 0.9540241183409108 H
atom_frac 0.3487464173762973 0.2269720928693672 0.9056736318360734 H
atom_frac 0.5862153855662697 0.7420086938422584 0.5937745242976858 H
atom_frac 0.5671369132509767 0.8195149661544433 0.7351758120629057 H
atom_frac 0.2915316888147289 0.7083938091265196 0.5608593472464206 H
atom_frac 0.2015019326072505 0.5029703599260030 0.6483111544493525 H
atom_frac 0.2037917894593946 0.5277602469743384 0.5388197008104711 H
atom_frac 0.4661352718043972 0.5956566853614192 0.6418596259864275 H
atom_frac 0.3503543767379398 0.6795563638525265 0.7736552595876631 H
atom_frac 0.4385927097128359 0.2100856117894168 0.6753580191724353 C
atom_frac 0.2290056676128813 0.7949510170519432 0.4404930907181425 C
atom_frac 0.7044549584291744 0.1146619088932538 0.8409676823208087 C
atom_frac 0.8350360863786719 0.0940973410240176 0.7452242624168051 C
atom_frac 0.8437021181577579 0.9675075628169978 0.6442841832297219 C
atom_frac 0.4392694655290299 0.4654160652958979 0.7891360721547400 C
atom_frac 0.2287261649577985 0.6453205529459962 0.2043461389647447 C
atom_frac 0.7062117873837224 0.7265463612288556 0.8855081628397629 C
atom_frac 0.8364705060967452 0.6514784830883329 0.9063829420432442 C
atom_frac 0.8447155066455566 0.6777726335558683 0.0332444599960766 C
atom_frac 0.4401716842495276 0.3242603114767418 0.5335918941418498 C
atom_frac 0.2292278826852865 0.5590439693524657 0.3542971942324372 C
atom_frac 0.7060753619228708 0.1588556315788807 0.2731661409478860 C
atom_frac 0.8368257337661263 0.2544694127922540 0.3483590949842821 C
atom_frac 0.8459429201111560 0.3549862425442570 0.3221307886334941 C
atom_frac 0.9417491741033501 0.7894507043496616 0.3243147982210529 C
atom_frac 0.7255941648042706 0.2040515615940279 0.5581754934332466 C
atom_frac 0.2059541516107473 0.8848550525339860 0.1590599966550030 C
atom_frac 0.3365836440763132 0.9062721925078350 0.2550453580242120 C
atom_frac 0.3442296775060854 0.0331799709245999 0.3554374274157509 C
atom_frac 0.9419461457645398 0.5340774231187168 0.2101556617461283 C
atom_frac 0.7249976140521851 0.3538631590799849 0.7952431947865362 C
atom_frac 0.2055556915621253 0.2738360965714008 0.1148339647134122 C
atom_frac 0.3361520300974163 0.3485648247709534 0.0937483734207945 C
atom_frac 0.3445145041727926 0.3216585883961899 0.9666801452018917 C
atom_frac 0.9431302163950335 0.6758803469690021 0.4659365825666343 C
atom_frac 0.7269888896546135 0.4408954467864915 0.6456751022994779 C
atom_frac 0.2070081455178752 0.8410705715044242 0.7259917931075677 C
atom_frac 0.3380517493544346 0.7453826562606665 0.6516169699434116 C
atom_frac 0.3462748543700656 0.6455576307931210 0.6788534389352208 C
atom_frac 0.0021969959405652 0.1420906033583123 0.8005781471801683 N
atom_frac 0.6910892285878418 0.9410228032909130 0.5679485984250193 N
atom_frac 0.3663846628496259 0.1313961366330716 0.6774918693952828 N
atom_frac 0.3195888111104068 0.8766025793393621 0.4998451943109997 N
atom_frac 0.0039337167011411 0.6583897503995215 0.8585077292865860 N
atom_frac 0.6922296206296041 0.6278343108870172 0.0596301859453021 N
atom_frac 0.3676715200609236 0.5463482755872562 0.8681016999376895 N
atom_frac 0.3192295891790877 0.6234529950073122 0.1228012924290808 N
atom_frac 0.0038689507393315 0.1992798014169778 0.3415109859809319 N
atom_frac 0.6939036017808674 0.4317313402293337 0.3721653899093624 N
atom_frac 0.3684201998017188 0.3222469166701812 0.4525913194973867 N
atom_frac 0.3199533339631841 0.4998297134513620 0.3765849184494100 N
atom_frac 0.5041159285232197 0.8586003162082817 0.2002821234001645 N
atom_frac 0.1918022803206227 0.0593960622054155 0.4318541510439430 N
atom_frac 0.8691433491834174 0.8680560481889117 0.3222832736192913 N
atom_frac 0.8155263693543446 0.1222651245960336 0.4984353992588025 N
atom_frac 0.5035006809014176 0.3419152821631498 0.1420378329660537 N
atom_frac 0.1925500356040857 0.3718525759495605 0.9399698306024717 N
atom_frac 0.8692415761485819 0.4534223913067236 0.1314606971027814 N
atom_frac 0.8144020433585553 0.3759516464793506 0.8773383933947159 N
atom_frac 0.5053410788152064 0.8002854531738632 0.6582847198391447 N
atom_frac 0.1942367965662655 0.5687204495899465 0.6286236828247028 N
atom_frac 0.8714465208579509 0.6780993164647098 0.5470127792002089 N
atom_frac 0.8179942579249797 0.5007158316110177 0.6244226301852507 N
atom_frac 0.5661584992861320 0.0549435063545899 0.8142080516114163 O
atom_frac 0.7366734016418661 0.1946764580595044 0.9453129005171234 O
atom_frac 0.5678593380809859 0.7597212968725555 0.9450740614590528 O
atom_frac 0.7388651517865767 0.7505780918513025 0.8053150586115549 O
atom_frac 0.5681534387227388 0.1855314672430310 0.2398295017008607 O
atom_frac 0.7379005868217234 0.0545832296049511 0.2491533242998401 O
atom_frac 0.0677321473485009 0.9444012916879598 0.1851262337057732 O
atom_frac 0.2380457561424905 0.8040597442010194 0.0549265492211788 O
atom_frac 0.0676220029736996 0.2401883524412511 0.0547840758507974 O
atom_frac 0.2375163895490715 0.2505389177710953 0.1956208892156113 O
atom_frac 0.0700275104031789 0.8150271502281399 0.7607216240781297 O
atom_frac 0.2375972706827483 0.9449090687703858 0.7479194651157499 O
