#=======================================================
# FHI-aims file: ./geometry.in
# Created using the Atomic Simulation Environment (ASE)
# Fri Jan 14 15:06:22 2022
#=======================================================
lattice_vector -3.7290054580000001 0.0003731480000000 -0.4389669200000000 
lattice_vector -3.7033387339999999 -0.0029715510000000 15.3705344069999992 
lattice_vector -1.8657310490000001 15.6962529820000007 -0.2228209230000000 
atom_frac 0.1256521036805083 0.2501601253963130 0.7503680330742739 Ag
atom_frac 0.8743442557311879 0.7498419509768084 0.2496323127744091 Ag
atom_frac 0.2794277908203995 0.4362478499596776 0.8605252527659317 H
atom_frac 0.2159139107207435 0.8605364390513229 0.0636200602282102 H
atom_frac 0.5767627697264429 0.0634849310418559 0.6396057353528377 H
atom_frac 0.1404817109371807 0.6395098955546671 0.4365480043968475 H
atom_frac 0.7205785203453984 0.5637512114578200 0.1394719068017665 H
atom_frac 0.7840900927652541 0.1394612829745299 0.9363790104249574 H
atom_frac 0.4232445453252759 0.9365135730983383 0.3603958837485734 H
atom_frac 0.8595279117943379 0.3604899479771717 0.5634517036190942 H
atom_frac 0.6418861680179971 0.3139446789727317 0.9325457101685828 C
atom_frac 0.4571010576527644 0.9325588296427866 0.1858233670878136 C
atom_frac 0.8889681482971383 0.1859053900580889 0.5675749951837189 C
atom_frac 0.5752937860182645 0.5674363254455841 0.3140846099962927 C
atom_frac 0.3581111386473522 0.6860567646197424 0.0674539984430638 C
atom_frac 0.5428851896760419 0.0674429487064145 0.8141763418501283 C
atom_frac 0.1110242429454757 0.8140946396689372 0.4324266245612947 C
atom_frac 0.4247103117514116 0.4325640016618948 0.6859144611478172 C
atom_frac 0.2463202436901072 0.4237972313556355 0.9981265872273255 C
atom_frac 0.1700256301061814 0.9981274480418989 0.0761896831851487 C
atom_frac 0.6679444710974067 0.0761769154819021 0.5019922353750133 C
atom_frac 0.2442963620708910 0.5019280303519693 0.4238113614548809 C
atom_frac 0.7536812463366332 0.5762030212780402 0.0018724839646822 C
atom_frac 0.8299712727995042 0.0018720229922025 0.9238093879679354 C
atom_frac 0.3320531450439219 0.9238238955873044 0.4980081102042604 C
atom_frac 0.7557051185429983 0.4980715898871324 0.5761889838070787 C
atom_frac 0.1569676738234519 0.4650268066965352 0.9209499423382113 C
atom_frac 0.1223103448730568 0.9209466790195506 0.0348370404574538 C
atom_frac 0.5434279219063712 0.0347533479695699 0.5791675569149318 C
atom_frac 0.0783952188428999 0.5791017281476485 0.4652620969905996 C
atom_frac 0.8430344539809483 0.5349734456797535 0.0790478546491258 C
atom_frac 0.8776976079563282 0.0790518248632566 0.9651633044392938 C
atom_frac 0.4565774137672278 0.9652444490448673 0.4208340620996652 C
atom_frac 0.9216039729168914 0.4208978174889567 0.5347376112169255 C
atom_frac 0.0769277573645228 0.4616035387707099 0.0782437040500596 C
atom_frac 0.0382515874234102 0.0782795796379645 0.0384963429777017 C
atom_frac 0.6165538305582672 0.0385256912303475 0.4217455225026612 C
atom_frac 0.1548088462440660 0.4217619703159414 0.4614060138364593 C
atom_frac 0.9230711343321402 0.5383972717837222 0.9217540931198868 C
atom_frac 0.9617339466697600 0.9217208586761316 0.9615020915340506 C
atom_frac 0.3834527712578151 0.9614714728747416 0.5782548221725676 C
atom_frac 0.8451978498556871 0.5782377988707736 0.5385943313297047 C
atom_frac 0.8011976556452610 0.2695704720052560 0.8774891748303020 N
atom_frac 0.5747774036640011 0.8776438971635797 0.2299041364012098 N
atom_frac 0.9525854255861286 0.2298606623766233 0.6225076518924552 N
atom_frac 0.6821127193388250 0.6223804610225016 0.2700615816491663 N
atom_frac 0.1987986094827645 0.7304289992862395 0.1225111705274458 N
atom_frac 0.4252160197030861 0.1223574724698580 0.7700981206676616 N
atom_frac 0.0473907568792031 0.7701402610574418 0.3774977909754469 N
atom_frac 0.3178890895767452 0.3776197914824805 0.7299368524405097 N
atom_frac 0.4816099882567286 0.3537363891653483 0.0000739943423724 N
atom_frac 0.3350194744110623 0.0000564356048969 0.1462384148934603 N
atom_frac 0.8338437740687681 0.1463394061242695 0.5000654434452086 N
atom_frac 0.4808059335919098 0.4999621722439541 0.3536376648417843 N
atom_frac 0.5183882562494164 0.6462637892519041 0.9999263511021892 N
atom_frac 0.6649716695147778 0.9999454918206110 0.8537619310510179 N
atom_frac 0.1661525759300776 0.8536620378542850 0.4999361764734330 N
atom_frac 0.5192007625078431 0.5000375969427608 0.6463626803243797 N
atom_frac 0.1717264991261161 0.4125798210552389 0.1714384908083488 Cl
atom_frac 0.0841507188825617 0.1714636042226516 0.0875494370374881 Cl
atom_frac 0.7554154534814187 0.0877328137223117 0.3286847393885068 Cl
atom_frac 0.3426889139121556 0.3286525007731669 0.4121492397837372 Cl
atom_frac 0.8282742870778389 0.5874197239379059 0.8285580318875105 Cl
atom_frac 0.9158513995089945 0.8285360157590703 0.9124496340198006 Cl
atom_frac 0.2445895727162014 0.9122656158153857 0.6713162426584702 Cl
atom_frac 0.6573203805176817 0.6713467104927915 0.5878523794044952 Cl
