#=======================================================
# FHI-aims file: ./geometry.in
# Created using the Atomic Simulation Environment (ASE)
# Tue Nov 30 12:20:15 2021
#=======================================================
lattice_vector 6.9026201130000002 0.0001377640000000 0.0000632690000000 
lattice_vector 0.0003110050000000 17.0640845990000010 0.0002074170000000 
lattice_vector 0.0001743260000000 0.0002074080000000 17.0645620569999998 
atom_frac 0.2500008126920932 0.3295047244155854 0.6704933768355161 Hg
atom_frac 0.7500114368185393 0.6704964608244665 0.3295175965477171 Hg
atom_frac 0.0000213525215855 0.8295615189641909 0.8295599902419184 Hg
atom_frac 0.4999793159077228 0.1704372569523755 0.1704340847136550 Hg
atom_frac 0.0980838091985490 0.4915514671259020 0.8710743228307649 H
atom_frac 0.5981017823112181 0.5084539291504128 0.1289313308692357 H
atom_frac 0.8482245045517941 0.6289483276447784 0.9916390366529839 H
atom_frac 0.3481696960001842 0.3710342773319936 0.0083758969235390 H
atom_frac 0.6517282784193555 0.0083686450721601 0.3709973340574138 H
atom_frac 0.1518136489713271 0.9916388148872457 0.6289856532093836 H
atom_frac 0.9019261239157217 0.8710548581933538 0.4915744240274549 H
atom_frac 0.4019490013427358 0.1289585246215097 0.5084278044709265 H
atom_frac 0.2859146486254147 0.6129875408341049 0.9129654024750451 H
atom_frac 0.7858906299174890 0.3870054467095018 0.0870247944844138 H
atom_frac 0.0360294617236789 0.5871045420314828 0.1131236734081540 H
atom_frac 0.5359974793149788 0.4128854476953734 0.8868976770667416 H
atom_frac 0.4639748603515628 0.8868791268342664 0.4128653678561065 H
atom_frac 0.9639690955215343 0.1131168456120761 0.5871358148434072 H
atom_frac 0.7141069795474096 0.9129663175796596 0.6130069684466193 H
atom_frac 0.2140847152192507 0.0870500980781941 0.3870095451230711 H
atom_frac 0.3588443650590420 0.7143138634394859 0.8117729062818171 H
atom_frac 0.8588040840850936 0.2856732585182157 0.1882120619390122 H
atom_frac 0.1088338243486291 0.6883645282238219 0.2143700098173227 H
atom_frac 0.6088537473540612 0.3116342480947338 0.7856420103492711 H
atom_frac 0.3911791899100622 0.7856208986074976 0.3116225474519325 H
atom_frac 0.8911070325658343 0.2143733196017977 0.6883826913717712 H
atom_frac 0.6411410350411088 0.8117818118884444 0.7143401053939941 H
atom_frac 0.1411437460420402 0.1882322657244657 0.2856634709476680 H
atom_frac 0.2321300240652064 0.6971125682810921 0.6758691305316447 H
atom_frac 0.7321175459130557 0.3028877338872817 0.3241220511323348 H
atom_frac 0.9822790741926113 0.8242606697764004 0.1970831056358904 H
atom_frac 0.4822828609352995 0.1757373511970357 0.8029138392046279 H
atom_frac 0.5177453784729521 0.8028876172711038 0.1757344079625298 H
atom_frac 0.0176911096317127 0.1970991518891623 0.8242718419613057 H
atom_frac 0.7678487570307553 0.6758592620588716 0.6971442451637060 H
atom_frac 0.2678890570081762 0.3241510113907609 0.3028490153591150 H
atom_frac 0.1339807075849748 0.5383142226640417 0.8297939214821498 C
atom_frac 0.6339834249385916 0.4616917662471494 0.1702056059850747 C
atom_frac 0.8841142585634215 0.6702363771826042 0.0383751450736867 C
atom_frac 0.3840628288684726 0.3297497504392978 0.9616406943355145 C
atom_frac 0.6158492546030774 0.9616253762065911 0.3297173147244550 C
atom_frac 0.1159141316353924 0.0383832491679357 0.6702741427928133 C
atom_frac 0.8660302881560824 0.8297895474581838 0.5383351218733878 C
atom_frac 0.3660633990597050 0.1702191406760178 0.4616638567621295 C
atom_frac 0.2380912057261142 0.6051945122971886 0.8526330391590023 C
atom_frac 0.7380619885183393 0.3948015915847947 0.1473569263948846 C
atom_frac 0.9880958508359540 0.6474230700191799 0.1052891478615905 C
atom_frac 0.4880863092388310 0.3525648943684559 0.8947347104669134 C
atom_frac 0.5119056567212255 0.8947140568257409 0.3525430077396977 C
atom_frac 0.0119164010351582 0.1052815966502578 0.6474503929232753 C
atom_frac 0.7619149302009731 0.8526293586210657 0.6052247288903629 C
atom_frac 0.2619172591405530 0.1473874570629051 0.3947826399288843 C
atom_frac 0.2733693777355199 0.6628059662938598 0.7967772733663737 C
atom_frac 0.7733338386534072 0.3371860518962820 0.2032095006153156 C
atom_frac 0.0232886748059471 0.7033159583988535 0.1628563708567441 C
atom_frac 0.5232972021224924 0.2966789249801352 0.8371609718162460 C
atom_frac 0.4767244724745651 0.8371297452837325 0.2966648769695369 C
atom_frac 0.9766793810985349 0.1628584032418559 0.7033391414781391 C
atom_frac 0.7266380834814755 0.7967753757758016 0.6628326425135073 C
atom_frac 0.2266469814280825 0.2032420094695055 0.3371738158415881 C
atom_frac 0.9762090203553556 0.3869617986628170 0.5141777412434010 C
atom_frac 0.4761966607528124 0.6130421805991801 0.4858286247517682 C
atom_frac 0.7262486856710024 0.9858756799608771 0.8868612926042232 C
atom_frac 0.2262439278000556 0.0141194428161810 0.1131346207838106 C
atom_frac 0.7737558010111272 0.1131288622128821 0.0141215215245509 C
atom_frac 0.2737630473887335 0.8868649073640641 0.9858740395582616 C
atom_frac 0.0238043853485266 0.5141785607764576 0.3869693123379676 C
atom_frac 0.5237999457593076 0.4858204168126932 0.6130275161674420 C
atom_frac 0.0064862321408370 0.4688748104567466 0.5287860483541992 C
atom_frac 0.5064834240301295 0.5311396834994612 0.4712050482773478 C
atom_frac 0.7565690927065347 0.9713093453838652 0.9687697001153455 C
atom_frac 0.2565555700074639 0.0286759114391373 0.0312289186405152 C
atom_frac 0.7434416511661085 0.0312124351137015 0.0286738380724998 C
atom_frac 0.2434422511772141 0.9687777218532286 0.9713178457975289 C
atom_frac 0.9935030024764588 0.5287852289581069 0.4688797424912821 C
atom_frac 0.4935069298487208 0.4712219871905746 0.5311182910282355 C
atom_frac 0.0353786563877918 0.5659076460272987 0.6228258508633573 C
atom_frac 0.5353907908496537 0.4341052092281146 0.3771662035076773 C
atom_frac 0.7855575996557957 0.8772734357626745 0.0658322395488113 C
atom_frac 0.2855464958880489 0.1227148691398909 0.9341655781942322 C
atom_frac 0.7144530631574570 0.9341477434798194 0.1227116776951007 C
atom_frac 0.2144427140509748 0.0658370213445778 0.8772831512875215 C
atom_frac 0.9646304641416846 0.6228227286031185 0.5659260256732920 C
atom_frac 0.4646405236024690 0.3771826095340530 0.4340763240117766 C
atom_frac 0.2006543756638166 0.6538442019544276 0.7211888383239895 C
atom_frac 0.7006533260193067 0.3461595384976662 0.2788008186263511 C
atom_frac 0.9508014099664235 0.7789159172399209 0.1538344948188097 C
atom_frac 0.4507757464682243 0.2210820261872257 0.8461638555661324 C
atom_frac 0.5492187379897259 0.8461472635015427 0.2210610347662154 C
atom_frac 0.0491807976982912 0.1538460296967231 0.7789414655763524 C
atom_frac 0.7993054275773445 0.7211880716936037 0.6538673424379838 C
atom_frac 0.2993534211985533 0.2788193496006598 0.3461315449295341 C
atom_frac 0.0988430031987519 0.5845482409206753 0.7027102401459261 C
atom_frac 0.5988623011890793 0.4154641755999434 0.2972789995608025 C
atom_frac 0.8491742517910269 0.7974113940096788 0.0845038315134303 C
atom_frac 0.3491438557295297 0.2025835021765516 0.9154952725169211 C
atom_frac 0.6508122849999366 0.9154747349404176 0.2025776534544264 C
atom_frac 0.1508115307427289 0.0845186758480807 0.7974076851338340 C
atom_frac 0.9011432542747642 0.7026948641557809 0.5845756370064451 C
atom_frac 0.4011585559404551 0.2973038806641313 0.4154301135617047 C
atom_frac 0.9795666714955615 0.2616393245212053 0.5278625800805372 N
atom_frac 0.4795610945960078 0.7383675305951698 0.4721443469664664 N
atom_frac 0.7295309350044336 0.9721266586663972 0.7615543935029551 N
atom_frac 0.2294852874791573 0.0278865782832085 0.2384391514387474 N
atom_frac 0.7704742393821887 0.2384392814665404 0.0278953421081027 N
atom_frac 0.2705166528701354 0.7615504384441467 0.9721154794810475 N
atom_frac 0.0204661733192637 0.5278620637171517 0.2616515561692054 N
atom_frac 0.5204407013443556 0.4721264194145861 0.7383499853735387 N
atom_frac 0.8782784322374653 0.2797977863591967 0.4624113042589073 N
atom_frac 0.3782364162602434 0.7202077743498522 0.5375987180556479 N
atom_frac 0.6282096256079727 0.0375696533523282 0.7796814484179890 N
atom_frac 0.1282009224547380 0.9624487353409135 0.2203216377934680 N
atom_frac 0.8717926815400361 0.2203229980611212 0.9624524256147780 N
atom_frac 0.3718067821284023 0.7796703604464741 0.0375511986260832 N
atom_frac 0.1217693276111831 0.4624112793339918 0.2798083166662623 N
atom_frac 0.6217519129690955 0.5375861165049829 0.7201924735500214 N
atom_frac 0.0383651891460488 0.3275504360021345 0.5610404533772808 N
atom_frac 0.5383527236623847 0.6724600269397742 0.4389668152220382 N
atom_frac 0.7884156493172155 0.9389914628356735 0.8274759884122389 N
atom_frac 0.2883833843313965 0.0610214093241552 0.1725106737319635 N
atom_frac 0.7115856922237569 0.1725096530082625 0.0610199777628040 N
atom_frac 0.2116281842825032 0.8274804318947061 0.9389772162605751 N
atom_frac 0.9616490988101277 0.5610409116929560 0.3275608696742083 N
atom_frac 0.4616603850963656 0.4389521680166197 0.6724420882726464 N
atom_frac 0.8767830308914952 0.3566435283792445 0.4525906101244246 N
atom_frac 0.3767720717127573 0.6433649863127543 0.5474229391864469 N
atom_frac 0.6267614123870472 0.0474409277668073 0.8565242082718214 N
atom_frac 0.1267734170008694 0.9525587313484962 0.1434753727707871 N
atom_frac 0.8732451188731645 0.1434769099067951 0.9525650255077239 N
atom_frac 0.3732315130593947 0.8565199415723088 0.0474350719646282 N
atom_frac 0.1232513240901554 0.4525891209047757 0.3566530630557665 N
atom_frac 0.6232209695693030 0.5474100091096402 0.6433541623054495 N
atom_frac 0.0430216838324995 0.4907704873089928 0.6024793047473267 N
atom_frac 0.5430303660735163 0.5092422446012110 0.3975097629142255 N
atom_frac 0.7932419921951137 0.8976241973050776 0.9906989451815065 N
atom_frac 0.2932229373588909 0.1023587093567500 0.0092982296651698 N
atom_frac 0.7067764404775332 0.0092739462499409 0.1023503183705117 N
atom_frac 0.2067700930635468 0.9907068403600122 0.8976404655013540 N
atom_frac 0.9569840090045716 0.6024809774674154 0.4907875432025150 N
atom_frac 0.4569913376790424 0.3975221400298211 0.5092166212493439 N
atom_frac 0.0704592621290132 0.5287715936990338 0.7573710841640775 N
atom_frac 0.5704574609643344 0.4712471414539223 0.2426265701533269 N
atom_frac 0.8207396477441834 0.7426979682866559 0.0287803474122725 N
atom_frac 0.3207058530134504 0.2572903546418460 0.9712265856872264 N
atom_frac 0.6792454203636709 0.9712154772082260 0.2572586137023123 N
atom_frac 0.1792857712401741 0.0287850924481319 0.7427300298663013 N
atom_frac 0.9295430100119687 0.7573533869572984 0.5287937698391900 N
atom_frac 0.4295792526830127 0.2426525174963318 0.4712100119437039 N
atom_frac 0.0154122635547509 0.3525490512137211 0.7764480480634292 Cl
atom_frac 0.5153868535694456 0.6474629543464872 0.2235716969718879 Cl
atom_frac 0.7653204493260047 0.7236232138473183 0.8525587377272572 Cl
atom_frac 0.2653193009919406 0.2763865149194658 0.1474193054500006 Cl
atom_frac 0.7346668196575121 0.1474442683131798 0.2763694093152864 Cl
atom_frac 0.2347063415370911 0.8525319655090445 0.7236129634910000 Cl
atom_frac 0.9845894685442076 0.7764566081075870 0.3524975698536110 Cl
atom_frac 0.4846156303725095 0.2235530958607512 0.6475028736883816 Cl
