#=======================================================
# FHI-aims file: ./geometry.in
# Created using the Atomic Simulation Environment (ASE)
# Fri Jan 14 15:06:22 2022
#=======================================================
lattice_vector 7.1775741870000003 -0.0015446100000000 0.0016368380000000 
lattice_vector -0.0021492760000000 10.0355488499999996 0.0038625780000000 
lattice_vector 0.0022714660000000 0.0038612610000000 9.9809296879999998 
atom_frac 0.4998572434795038 0.3902002399708805 0.1083881631895949 V
atom_frac 0.5000024435419093 0.8892324034466765 0.3903090162197600 V
atom_frac 0.5001434536006073 0.6101221807147823 0.8913092246680066 V
atom_frac 0.4999937516423998 0.1104949561918076 0.6098434701086788 V
atom_frac 0.4999822598654404 0.6623143451547194 0.1513269220837188 H
atom_frac 0.5000573157706968 0.8470474485711748 0.6568696409339481 H
atom_frac 0.4999458447328636 0.1527745401707036 0.3433749834132271 H
atom_frac 0.5000239854437325 0.3380219917153084 0.8484616333498992 H
atom_frac 0.5000571564758403 0.5577820486746106 0.5861805657050425 C
atom_frac 0.4999852161756237 0.4139081795102016 0.5585033686062887 C
atom_frac 0.5000169067156720 0.0580379654789454 0.9140779128147473 C
atom_frac 0.4998847302997689 0.4418995156544200 0.4138416988646441 C
atom_frac 0.4999336987638189 0.0858284575296651 0.0586658947328900 C
atom_frac 0.4999580595369152 0.5857823446725376 0.4415409343030350 C
atom_frac 0.5000559665777260 0.9418358933663740 0.0860534641199919 C
atom_frac 0.5001378013386598 0.9140932380201787 0.9414474295222988 C
atom_frac 0.8978874459769417 0.4497589553009220 0.0541064902312556 C
atom_frac 0.8978254682437096 0.9474078164893814 0.4478762107643846 C
atom_frac 0.1021722165403744 0.9473540887118760 0.4479315726417070 C
atom_frac 0.8980367564261869 0.5507546561391905 0.9457688834180189 C
atom_frac 0.1020853857076176 0.5507427572032668 0.9457631614470686 C
atom_frac 0.8978240464991457 0.0525436856615542 0.5521677464600430 C
atom_frac 0.1021680086559869 0.0524899578405424 0.5522221068836259 C
atom_frac 0.1019778736622072 0.4497490568731807 0.0540977548993027 C
atom_frac 0.4997861610887567 0.3680493371879409 0.3120411032943551 O
atom_frac 0.4999477367683128 0.6871824307578648 0.3675927479199217 O
atom_frac 0.5000599873365347 0.8674360692185845 0.1878533365070539 O
atom_frac 0.5001836121412709 0.6316999924966212 0.6879761209237643 O
atom_frac 0.5002394922472392 0.8125627600696606 0.8674374905534706 O
atom_frac 0.5000234022091163 0.3124762210866265 0.6324255130768394 O
atom_frac 0.4999543671124798 0.1324586946663473 0.8123080992546650 O
atom_frac 0.4997846848606784 0.1874018171291354 0.1325686204252889 O
atom_frac 0.7772286133797337 0.3852124461671734 0.1197002610876439 O
atom_frac 0.7783041011181524 0.8817568311439816 0.3828861946927660 O
atom_frac 0.2216981463834600 0.8816392276551145 0.3830095828007813 O
atom_frac 0.7776671299062130 0.6152511917769985 0.8799721973527427 O
atom_frac 0.2226216592756955 0.6152195755984948 0.8799610402395786 O
atom_frac 0.7782785765119656 0.1181937550597780 0.6171388582026579 O
atom_frac 0.2217116318956940 0.1180741650473536 0.6172612387712491 O
atom_frac 0.2224729376559793 0.3851868552850136 0.1196840445639822 O
atom_frac 0.5000320075207868 0.4088698408429325 0.9165641401076671 O
atom_frac 0.5000200327721771 0.0846224506368074 0.4142684916781505 O
atom_frac 0.4999859138728837 0.9151318036859738 0.5859130380525245 O
atom_frac 0.4999797659993702 0.5913977119887549 0.0833005862497771 O
