#=======================================================
# FHI-aims file: ./geometry.in
# Created using the Atomic Simulation Environment (ASE)
# Fri Jan 14 15:06:22 2022
#=======================================================
lattice_vector 8.7775317519999998 0.0008318500000000 2.6183012149999998 
lattice_vector 4.6769006089999996 -10.0128425900000000 0.3404988480000000 
lattice_vector 8.7619712659999998 0.1985294100000000 -13.3443869950000007 
atom_frac 0.6210906753515389 0.2503477379166200 0.7503968215257898 Fe
atom_frac 0.3779499942274711 0.7503698348843032 0.2503439831817502 Fe
atom_frac 0.4867670038925452 0.1703476912437409 0.6185466468736606 Si
atom_frac 0.7244579535982751 0.6703168123355566 0.1185420688946408 Si
atom_frac 0.5139524341750029 0.8294821323507479 0.3817897364085424 Si
atom_frac 0.2746875450908421 0.3295579415403437 0.8819010447546203 Si
atom_frac 0.7449618252996688 0.9493009524758947 0.7058466107557634 Si
atom_frac 0.5997331653122870 0.4493780566246671 0.2058277227001355 Si
atom_frac 0.2561063160776271 0.0505499055292020 0.2939877016924298 Si
atom_frac 0.3995166756650690 0.5505694418092234 0.7942038298168086 Si
atom_frac 0.3168308015452936 0.3848226496258961 0.5531929000772635 H
atom_frac 0.7452678203440115 0.8848703843754251 0.0531806358944920 H
atom_frac 0.6829083608992619 0.6148003049224897 0.4473422862278368 H
atom_frac 0.2549623937556406 0.1147625852054261 0.9473035275537353 H
atom_frac 0.4899918647391245 0.4005852791621011 0.5706950138451815 H
atom_frac 0.5388903260748206 0.9005239457228884 0.0707514374382470 H
atom_frac 0.5098293202763173 0.5994802996256966 0.4293962009862539 H
atom_frac 0.4612861599478322 0.0995411278522127 0.9293128082288786 H
atom_frac 0.3215304281303160 0.4046000753372070 0.6608058784184080 H
atom_frac 0.6132578741204071 0.9044993019626163 0.1608275305607521 H
atom_frac 0.6789336854926661 0.5951335298283736 0.3396150888490154 H
atom_frac 0.3862417702930758 0.0953361391515344 0.8395454318129153 H
atom_frac 0.5163463791893009 0.1489592872822598 0.4623817354834399 H
atom_frac 0.8724120558451173 0.6488495490889292 0.9623394521308269 H
atom_frac 0.4849682827748580 0.8509107533225659 0.5376130936528652 H
atom_frac 0.1266669743215657 0.3510785462192701 0.0377719960834852 H
atom_frac 0.6553638738469517 0.0011087926759359 0.5067612002202253 H
atom_frac 0.8368121603250173 0.5010159079451811 0.0067864964965949 H
atom_frac 0.3455803393248900 0.9988841023540405 0.4935380179651004 H
atom_frac 0.1623592280978272 0.4989582234770181 0.9935308433018830 H
atom_frac 0.7018032299020689 0.1461854340158908 0.4766444666063379 H
atom_frac 0.6754435052797162 0.6460869951631950 0.9767092660743513 H
atom_frac 0.2989800210936693 0.8537766881441582 0.5239670982168362 H
atom_frac 0.3235463452184462 0.3538451085360634 0.0239573118451233 H
atom_frac 0.2194855598452961 0.1623726878725975 0.6157253251321179 H
atom_frac 0.0025250526779529 0.6624307260215332 0.1156125229403813 H
atom_frac 0.7815775480380935 0.8364728008951942 0.3847305590475328 H
atom_frac 0.9971395919588131 0.3364653453527994 0.8849322094795012 H
atom_frac 0.2378040192950905 0.1497879136805338 0.7251569643724023 H
atom_frac 0.8874485537777372 0.6498868610785281 0.2250881479425927 H
atom_frac 0.7627447021733146 0.8499158462429225 0.2752191425768729 H
atom_frac 0.1120506916354104 0.3499121954067447 0.7754141996454961 H
atom_frac 0.3429881008326279 0.0081469513288681 0.6631200213242038 H
atom_frac 0.9859131721361931 0.5082102399405886 0.1630942401884567 H
atom_frac 0.6582589981261716 0.9912512103779679 0.3376565916050679 H
atom_frac 0.0126976878416302 0.4912934583031329 0.8378280120529097 H
atom_frac 0.7615220411938138 0.7261090899435417 0.6883743253097379 H
atom_frac 0.8239577704014779 0.2261660401452517 0.1884836604648470 H
atom_frac 0.2395476498716320 0.2738172470872726 0.3110860290143335 H
atom_frac 0.1757929095942285 0.7738048219393292 0.8111626591226653 H
atom_frac 0.6895753830375069 0.8371833881047762 0.5995678966335021 H
atom_frac 0.8736086696040462 0.3373907334721480 0.0997514383860931 H
atom_frac 0.3115897595466848 0.1627510184275636 0.3999968213068213 H
atom_frac 0.1256911019888703 0.6628385639194435 0.9000865260410364 H
atom_frac 0.5548732197729790 0.8399731244695162 0.7050698627266099 H
atom_frac 0.8999211345645506 0.3401222138273283 0.2052672650342302 H
atom_frac 0.4463062190301558 0.1599164216762361 0.2944485553647381 H
atom_frac 0.0995641409234624 0.6598505482410673 0.7945263627809351 H
atom_frac 0.9627795509514312 0.9328558706069358 0.5683193405711788 H
atom_frac 0.5361234576849015 0.4329468993336362 0.0682174926023792 H
atom_frac 0.0379457897635191 0.0660291928962593 0.4314642833511044 H
atom_frac 0.4649386323235090 0.5660700559703644 0.9316685429249459 H
atom_frac 0.0490040213188792 0.8199659118728988 0.6536504629414138 H
atom_frac 0.4775357929388875 0.3199078374462446 0.1535267822899726 H
atom_frac 0.9519643442156605 0.1794088269621099 0.3461978358188488 H
atom_frac 0.5227688434046555 0.6793907895577148 0.8463137409959954 H
atom_frac 0.0100734449196267 0.9916822640352125 0.6484683024256267 H
atom_frac 0.3498540224851893 0.4916388227118988 0.1484471085598287 H
atom_frac 0.9918709169708252 0.0076017158937134 0.3505762538425615 H
atom_frac 0.6502006732651678 0.5075926807455532 0.8506787115889621 H
atom_frac 0.8311222716707719 0.7834872207278138 0.8284558109677107 H
atom_frac 0.5564874028845850 0.2836084597922763 0.3284347193010362 H
atom_frac 0.1680776082340928 0.2151797105147608 0.1711623209258448 H
atom_frac 0.4457721816003968 0.7152384410785474 0.6713821858798779 H
atom_frac 0.6220093937121760 0.8912068654493838 0.8604601220434842 H
atom_frac 0.6255752596411527 0.3915081561922236 0.3604461216810221 H
atom_frac 0.3775183324428538 0.1081737069823774 0.1388321345765391 H
atom_frac 0.3759105438997212 0.6080299002766836 0.6390739805142827 H
atom_frac 0.7808855289889890 0.9432431342099649 0.8598496681945348 H
atom_frac 0.4153563016462626 0.4433921442291366 0.3596959849395133 H
atom_frac 0.2191709985389139 0.0547105150766498 0.1407119382724602 H
atom_frac 0.5857558609726327 0.5547829111144508 0.6409967147840944 H
atom_frac 0.9811251595808272 0.1057391351479140 0.7464041064483453 H
atom_frac 0.1659209587291955 0.6059043949360614 0.2465494141874984 H
atom_frac 0.0147831827057701 0.8906721271238923 0.2531993159174347 H
atom_frac 0.8406694763837025 0.3906425700035925 0.7533556438569703 H
atom_frac 0.1513498112718209 0.9778210140165200 0.8510174598369317 H
atom_frac 0.0186416017525699 0.4782894824047050 0.3512919962561085 H
atom_frac 0.8435937196790491 0.0179051612495016 0.1486924164237919 H
atom_frac 0.9889730398554808 0.5181696638656632 0.6489144453555794 H
atom_frac 0.5701814090306457 0.2672565193039773 0.9447625595467740 H
atom_frac 0.2179960755287667 0.7671801135684860 0.4446815980774658 H
atom_frac 0.4284257936272908 0.7379851937531684 0.0549197864675435 H
atom_frac 0.7790085626469860 0.2375923047301783 0.5549118872903519 H
atom_frac 0.7221441719008012 0.1462366048687045 0.0593533714574548 H
atom_frac 0.0724634795193565 0.6462548790698931 0.5594037598807161 H
atom_frac 0.2771438121493968 0.8595721983533838 0.9402162368412800 H
atom_frac 0.9234303467210264 0.3592288746411469 0.4403076603648232 H
atom_frac 0.3958437554620673 0.3577575677936338 0.5998150554665855 C
atom_frac 0.6467886902395679 0.8577059309323048 0.0998161620617566 C
atom_frac 0.6042577441555681 0.6420762341098792 0.4005230817826940 C
atom_frac 0.3530813214464033 0.1421752701849428 0.9004957494976293 C
atom_frac 0.6015881603165667 0.1100357615958885 0.5064253654874378 C
atom_frac 0.7820455582527329 0.6099347495139754 0.0064478731735989 C
atom_frac 0.3991061454276021 0.8899496178746844 0.4938988151063767 C
atom_frac 0.2172616631788244 0.3900051094120656 0.9939536954460876 C
atom_frac 0.3054824496893362 0.1166992532711433 0.6594848481074108 C
atom_frac 0.9184756772508820 0.6167467361250659 0.1594421336588567 C
atom_frac 0.6955430885268188 0.8827472286128354 0.3410097241557465 C
atom_frac 0.0805892664244540 0.3827922430708525 0.8411924276619086 C
atom_frac 0.6814499841777532 0.8285315502790241 0.6702237699856183 C
atom_frac 0.8196830290737650 0.3286291728262328 0.1704045998184327 C
atom_frac 0.3196824304904241 0.1714605918799137 0.3293315033374283 C
atom_frac 0.1796767020482335 0.6714689741566816 0.8294170532970354 C
atom_frac 0.9617450873635536 0.9210669304138362 0.6385359299527026 C
atom_frac 0.4787365275633276 0.4210514617985198 0.1384367802108314 C
atom_frac 0.0394560666486400 0.0783266732607828 0.3611546945591399 C
atom_frac 0.5213178652122250 0.5783205620616271 0.8613287886022576 C
atom_frac 0.7452409863038485 0.8881028610614341 0.8246346111760159 C
atom_frac 0.5414217815324205 0.3882752321970316 0.3245786096661262 C
atom_frac 0.2547326003439990 0.1108492209694845 0.1752078015946807 C
atom_frac 0.4595289312085456 0.6108645764887157 0.6754595656485873 C
atom_frac 0.9273653027244250 0.1096792588360529 0.8166030679594626 C
atom_frac 0.1457233754147892 0.6098181616080326 0.3167391708591153 C
atom_frac 0.0689796609945290 0.8890061006799995 0.1829994202246822 C
atom_frac 0.8585087018752448 0.3889671928445894 0.6831387055619017 C
atom_frac 0.0221341934115812 0.0375201794344946 0.8763197266205153 C
atom_frac 0.0631876732792944 0.5378364132771767 0.3765123900210696 C
atom_frac 0.9738266649636247 0.9610942659641848 0.1233344799630417 C
atom_frac 0.9411080280758026 0.4612195130388769 0.6235122684421198 C
atom_frac 0.6986521228773627 0.1995184665505860 0.9275493520118301 C
atom_frac 0.1742387505376189 0.6995082968832307 0.4275513969750477 C
atom_frac 0.2992815183972580 0.8041076912347407 0.0721544501175444 C
atom_frac 0.8245417537638887 0.3038404523402747 0.5722110729070522 C
atom_frac 0.7858049547914591 0.1306024761772591 0.9910791755007721 C
atom_frac 0.0924945701827297 0.6306347216021139 0.4911577462614359 C
atom_frac 0.2123392972801598 0.8732475633509507 0.0085315293571284 C
atom_frac 0.9059362860139756 0.3730529796940587 0.5086257008849414 C
atom_frac 0.9519043900093318 0.0415393766520751 0.9673397913039137 C
atom_frac 0.0388313078861273 0.5416999300077237 0.4675066951434416 C
atom_frac 0.0451891072384852 0.9599332195455762 0.0323510439229082 C
atom_frac 0.9621532458467428 0.4600271118336395 0.5325089655229078 C
atom_frac 0.6151387623832040 0.1152692262695325 0.6914890591192843 N
atom_frac 0.5779960228882430 0.6153614116033596 0.1914383584427881 N
atom_frac 0.3863251902095541 0.8847613907720129 0.3084941969058618 N
atom_frac 0.4203916133786834 0.3848192986429809 0.8086225619808827 N
atom_frac 0.7643235056796553 0.1866087374556713 0.8403697545572015 N
atom_frac 0.2084334604981704 0.6866200734006187 0.3403794365809034 N
atom_frac 0.2323657465062469 0.8146490009667317 0.1592152988032538 N
atom_frac 0.7935146566776299 0.3144826948060598 0.6592757980035413 N
