#=======================================================
# FHI-aims file: ./geometry.in
# Created using the Atomic Simulation Environment (ASE)
# Wed Feb  9 14:46:21 2022
#=======================================================
lattice_vector 6.9341059400000002 -0.3919264900000000 -1.1237533200000001 
lattice_vector -2.3315956600000001 9.3500247400000003 -4.0570016300000002 
lattice_vector 0.3127172900000000 -0.9635507200000000 12.8660903199999996 
atom_frac 0.3004863600000000 0.8355651199999999 0.1806561600000000 Cu
    initial_moment         1.000000
atom_frac 0.6995181299999998 0.1644394900000000 0.8193448800000001 Cu
    initial_moment         1.000000
atom_frac 0.2353601200000000 0.8098595000000000 0.7215054999999999 H
atom_frac 0.7646592000000000 0.1901552300000000 0.2784998700000000 H
atom_frac 0.8262037200000000 0.8261148399999999 0.4018773700000000 H
atom_frac 0.1737684000000000 0.1738350800000000 0.5981015400000000 H
atom_frac 0.9800720200000000 0.9765743700000000 0.3893691200000001 H
atom_frac 0.0198953300000000 0.0234066300000000 0.6106436500000000 H
atom_frac 0.1674185499999999 0.4568111699999999 0.3277854500000000 H
atom_frac 0.8325878899999999 0.5431925500000000 0.6722198800000000 H
atom_frac 0.2852970199999999 0.5861181299999998 0.7396093200000000 H
atom_frac 0.7146938499999999 0.4138863000000000 0.2603897700000000 H
atom_frac 0.2090944400000000 1.0323374500000000 0.9058826999999999 H
atom_frac 0.7909472500000000 -0.0323174300000000 0.0941266600000000 H
atom_frac 0.2327002699999999 0.5370183899999998 0.5461075800000000 H
atom_frac 0.7672567900000000 0.4629670099999999 0.4538936400000000 H
atom_frac 0.3035906599999999 0.5933376699999999 0.9347411900000000 H
atom_frac 0.6963990000000000 0.4066650800000000 0.0652573000000000 H
atom_frac 0.3674377800000000 0.3877098500000000 0.6243336500000000 H
atom_frac 0.6325089399999999 0.6122717199999999 0.3756686400000000 H
atom_frac 0.4221994299999999 0.1442656800000000 0.4840831800000000 H
atom_frac 0.5777788699999999 0.8557281000000000 0.5159210800000000 H
atom_frac 0.4216969999999999 0.6197627199999999 0.1404599400000000 H
atom_frac 0.5783128699999999 0.3802404999999999 0.8595298400000000 H
atom_frac 0.1990219700000000 0.5992724800000000 0.1708079800000000 H
atom_frac 0.8009879800000000 0.4007265300000000 0.8291862300000000 H
atom_frac 0.2457433399999999 0.8091489999999999 0.8066119700000000 C
atom_frac 0.7542756300000000 0.1908646600000000 0.1933929800000000 C
atom_frac 0.9235099500000000 0.8531706999999998 0.3500883299999999 C
atom_frac 0.0764721300000000 0.1468068100000000 0.6499061400000000 C
atom_frac 0.2129473200000000 0.3853066999999999 0.3608048799999999 C
atom_frac 0.7870528300000000 0.6146950199999999 0.6392001899999998 C
atom_frac 0.2377387599999999 0.2476945500000000 0.2819447100000000 C
atom_frac 0.7622745599999998 0.7523122799999999 0.7180612300000000 C
atom_frac 0.2573991900000000 1.0541205700000000 0.1306597800000000 C
atom_frac 0.7426309700000000 -0.0541068700000000 0.8693476400000000 C
atom_frac 0.2741570699999999 0.6868724699999998 0.8160352200000000 C
atom_frac 0.7258454299999998 0.3131352600000000 0.1839659700000000 C
atom_frac 0.2318527699999999 0.9330863599999999 0.9077377000000001 C
atom_frac 0.7681790199999999 0.0669304800000000 0.0922698600000000 C
atom_frac 0.2534297400000000 0.4301226200000000 0.4829652300000000 C
atom_frac 0.7465461799999998 0.5698696400000000 0.5170379700000000 C
atom_frac 0.3061894299999999 0.1586160400000000 0.3266090200000000 C
atom_frac 0.6938144199999999 0.8413868400000000 0.6733958000000000 C
atom_frac 0.2534274700000000 0.9325224799999999 1.0157825800000000 C
atom_frac 0.7466013300000000 0.0674918700000000 -0.0157760700000000 C
atom_frac 0.2871855899999999 0.6898090400000000 0.9257565100000001 C
atom_frac 0.7128150700000000 0.3101970000000000 0.0742439000000000 C
atom_frac 0.3277233299999999 0.3446533699999999 0.5267865399999999 C
atom_frac 0.6722453199999998 0.6553364999999999 0.4732166900000000 C
atom_frac 0.3575636400000000 0.2083762300000000 0.4500765400000000 C
atom_frac 0.6424202100000000 0.7916196499999999 0.5499275600000000 C
atom_frac 0.7781149499999999 0.7754994399999999 0.1985885700000000 S
atom_frac 0.2218892200000000 0.2245045900000000 0.8014052000000002 S
atom_frac 0.1331832700000000 0.7862639900000000 0.3663109000000001 S
atom_frac 0.8668080399999999 0.2137219800000000 0.6336812500000001 S
atom_frac 0.2134155000000000 0.1802905300000000 0.1588429000000000 N
atom_frac 0.7866152999999999 0.8197234699999999 0.8411647300000001 N
atom_frac 0.2793210099999999 0.8115713299999999 1.0224228300000000 N
atom_frac 0.7206928700000000 0.1884379300000000 -0.0224197200000000 N
atom_frac 0.3232393299999998 1.0367180299999998 0.2272103500000000 N
atom_frac 0.6767770899999999 -0.0367100700000000 0.7727960200000000 N
atom_frac 0.6562078000000000 0.8768976900000000 0.2069217600000000 O
atom_frac 0.3437973899999999 0.1231093000000000 0.7930807300000000 O
atom_frac 0.0748204600000000 0.6234629800000000 0.2793463900000001 O
atom_frac 0.9251797300000000 0.3765250199999999 0.7206404099999999 O
atom_frac 0.6474435500000000 0.6227023499999998 0.1632092199999999 O
atom_frac 0.3525578399999999 0.3772933500000000 0.8367624700000001 O
atom_frac 0.3019320799999999 0.8736329299999999 0.3383339700000000 O
atom_frac 0.6980551099999999 0.1263631700000000 0.6616639500000000 O
atom_frac 0.9266887300000000 0.7761197599999999 0.1289567600000000 O
atom_frac 0.0733289000000000 0.2239040100000000 0.8710482799999999 O
atom_frac 0.2797173600000000 0.6288815999999999 0.1223266100000000 O
atom_frac 0.7202907199999998 0.3711228499999999 0.8776694699999998 O
atom_frac 0.1943756900000000 0.8329423400000000 0.4933099399999999 O
atom_frac 0.8056112500000000 0.1670351800000000 0.5066804200000000 O
