#=======================================================
# FHI-aims file: ./geometry.in
# Created using the Atomic Simulation Environment (ASE)
# Fri Jan 14 15:06:22 2022
#=======================================================
lattice_vector 9.6549032040000000 0.0000000000000000 0.0000000000000000 
lattice_vector 0.0000000000000000 10.2430545720000001 -1.3355060000000001 
lattice_vector 0.0000000000000000 0.0000000000000000 14.0838000000000001 
atom_frac 0.3950666225653876 0.7155433907415869 0.3092846029903669 Cd
atom_frac 0.8950747425846471 0.2844444476518220 0.1907253203329873 Cd
atom_frac 0.6049071520033849 0.2844581154497448 0.6907301665695229 Cd
atom_frac 0.1048948890114616 0.7155472958267098 0.8092551517957034 Cd
atom_frac 0.5953203132703280 0.4783524255932292 0.1534864549691335 H
atom_frac 0.0953287651417014 0.5216256500873798 0.3465147322061952 H
atom_frac 0.4046296392056519 0.5216500568693831 0.8465291172019888 H
atom_frac 0.9046584740882082 0.4783358289814643 0.6534650001860101 H
atom_frac 0.7609315023434178 0.8511699257985725 0.3145502309691679 H
atom_frac 0.2609327040126388 0.1488179125948363 0.1854263206789284 H
atom_frac 0.2390557368864918 0.1487759329297873 0.6854706223521561 H
atom_frac 0.7390369275834772 0.8512138580061830 0.8145607871916951 H
atom_frac 0.7966853563910661 0.1097953732545989 0.4000456112522031 H
atom_frac 0.2966637717106622 0.8902002753090487 0.0999089598600449 H
atom_frac 0.2033733491172143 0.8901436515747960 0.6000008653587869 H
atom_frac 0.7033566113005207 0.1098432105473321 0.9000558277414612 H
atom_frac 0.0412205064712765 0.8673125714164130 0.3740802299806917 H
atom_frac 0.5412099831135677 0.1327152940994765 0.1259569201182629 H
atom_frac 0.9588071267420659 0.1327084602005186 0.6259385211980087 H
atom_frac 0.4587824348321661 0.8672666866662482 0.8740290165752782 H
atom_frac 0.0310194720415140 0.1423491390923317 0.4174809447274654 H
atom_frac 0.5309903053068439 0.8576787264235649 0.0825491050150546 H
atom_frac 0.9689915892811882 0.8576836077799613 0.5825268467524225 H
atom_frac 0.4689855407482568 0.1422915390868056 0.9174570218406757 H
atom_frac 0.2802078843088935 0.2188575667777855 0.4185649891064287 H
atom_frac 0.7801818248037193 0.7811468682273883 0.0814323072891483 H
atom_frac 0.7198114629591288 0.7811663936529883 0.5814540397990555 H
atom_frac 0.2198105931420145 0.2188341362670627 0.9185450164010760 H
atom_frac 0.5507750712401673 0.1947436661572439 0.4428479057225302 H
atom_frac 0.0507400218986191 0.8052636976617649 0.0571297874017986 H
atom_frac 0.4492794912954565 0.8052402671510422 0.5571914687954802 H
atom_frac 0.9492772538830748 0.1947505000562018 0.9428386132526753 H
atom_frac 0.6213733968368018 0.4809619987251566 0.2288173387203330 C
atom_frac 0.1213683840470310 0.5190316972959295 0.2711888798427182 C
atom_frac 0.3786024492182989 0.5190482939076944 0.7711861934139533 C
atom_frac 0.8786064262649019 0.4809551648261987 0.7288024899782997 C
atom_frac 0.6315278228241468 0.5409958485575075 0.3827271902273282 C
atom_frac 0.1315155598322235 0.4590007762774206 0.1172736257773579 C
atom_frac 0.3684873814712120 0.4590095627189470 0.6172851094923644 C
atom_frac 0.8684633934523730 0.5410231841533530 0.8827113214172257 C
atom_frac 0.7284298818331294 0.4398443812176538 0.3580947478792993 C
atom_frac 0.2284134758685425 0.5601541961598359 0.1419112235260798 C
atom_frac 0.2715780722600840 0.5601571249736779 0.6419072410390001 C
atom_frac 0.7715551199843986 0.4398512151166117 0.8580819052312236 C
atom_frac 0.5996942566551269 0.6268579313784031 0.4723975438804473 C
atom_frac 0.0996923510948520 0.3731269782011637 0.0276085515379023 C
atom_frac 0.4003375195308720 0.3731425985416479 0.5276157130325601 C
atom_frac 0.9003000668508819 0.6268764805327223 0.9723730314979163 C
atom_frac 0.8239274731106860 0.3660900148136008 0.4139760157999746 C
atom_frac 0.3239245318072506 0.6339134439202923 0.0860247381982262 C
atom_frac 0.1760587303760630 0.6339056337500466 0.5860168972370373 C
atom_frac 0.6760709933679863 0.3660968487125587 0.9139802140073525 C
atom_frac 0.4811979884039844 0.0105095603311796 0.3677299862877703 C
atom_frac 0.9811957509916026 0.9894938984027136 0.1322672175322168 C
atom_frac 0.5188234303503663 0.9894880407750293 0.6323000337539071 C
atom_frac 0.0188028814131229 0.0105163942301445 0.8676979726773126 C
atom_frac 0.6843051515278589 0.9247329430317137 0.3391092172436815 C
atom_frac 0.1842949600222639 0.0752568479042566 0.1608767500189714 C
atom_frac 0.3156965881063627 0.0752461089201759 0.6609240141112167 C
atom_frac 0.8156881362349893 0.9247602786275594 0.8391032889325843 C
atom_frac 0.7039107338936716 0.0526913135340834 0.3819657738233033 C
atom_frac 0.2038818990111153 0.9472877384177991 0.1180007141810719 C
atom_frac 0.2961106848606789 0.9472233045133081 0.6180556672572308 C
atom_frac 0.7961146619072821 0.0527625813375394 0.8819824723406882 C
atom_frac 0.3336739822171708 0.0141530047488274 0.3773180123801865 C
atom_frac 0.8336593158868054 0.9858572878840235 0.1226848097184572 C
atom_frac 0.6663432935645233 0.9858563116127501 0.6227131185686190 C
atom_frac 0.1663331020589283 0.0141403132221853 0.8772720766519058 C
atom_frac 0.1240053861445247 0.9388468969293344 0.3796088885052669 C
atom_frac 0.6239938270436554 0.0611624194322431 0.1204137220158117 C
atom_frac 0.8760149968666653 0.0611848736716851 0.6204144311831854 C
atom_frac 0.3760016981315744 0.9388117511632431 0.8795636636808979 C
atom_frac 0.1168245787832163 0.0740433427029856 0.4040120797256321 C
atom_frac 0.6168036979938663 0.9259796414565074 0.0960082766755406 C
atom_frac 0.8831947684848059 0.9259542584032233 0.5960037396031623 C
atom_frac 0.3831876842087070 0.0740345562614664 0.9039778748700300 C
atom_frac 0.5660771407563843 0.5639440812695113 0.3004267814226225 N
atom_frac 0.0660710922234529 0.4360525435654168 0.1995662241899794 N
atom_frac 0.4339245988778302 0.4360505910228625 0.6995717193239415 N
atom_frac 0.9339026823453196 0.5639645829663920 0.8004081344764272 N
atom_frac 0.7183448506378198 0.4035534489193752 0.2611609119948142 N
atom_frac 0.2183439808207126 0.5964421996442725 0.2388433616125027 N
atom_frac 0.2816237452151285 0.5964558674421951 0.7388389773856686 N
atom_frac 0.7816235792890680 0.4035407573927330 0.7611547382625830 N
atom_frac 0.2583858115704842 0.9030011443348159 0.3630677406854730 N
atom_frac 0.7583721809832866 0.0970140296544315 0.1369419346119400 N
atom_frac 0.7416283569817139 0.0970286737236350 0.6369624942082339 N
atom_frac 0.2416192012192866 0.9029708799251354 0.8630194285608469 N
atom_frac 0.2495478151455544 0.1191187639803601 0.4021154677010728 N
atom_frac 0.7495176126677165 0.8808973862801750 0.0978928801006447 N
atom_frac 0.7504839610404446 0.8809042201791401 0.5979105689852560 N
atom_frac 0.2504748052780172 0.1190943571983567 0.9020819117428900 N
atom_frac 0.5462250515173608 0.8999825135364931 0.3300169021658235 N
atom_frac 0.0462148600117658 0.1000180163835580 0.1699835741055935 N
atom_frac 0.4537797953463567 0.1000121587558809 0.6700107100421349 N
atom_frac 0.9537609860433348 0.8999854423503281 0.8299866483599274 N
atom_frac 0.5750000681208292 0.1053962948660967 0.3986081444050242 N
atom_frac 0.0749867693857382 0.8945925197985931 0.1013713399612399 N
atom_frac 0.4250379225241616 0.8945671367453087 0.6014179254552161 N
atom_frac 0.9250211847074682 0.1054265592757773 0.8985989436424973 N
atom_frac 0.4894093602142320 0.6970821008333133 0.4715522322211001 O
atom_frac 0.9894257661788188 0.3028852358632150 0.0284678176207223 O
atom_frac 0.5105809862451736 0.3028852358632150 0.5284884086543897 O
atom_frac 0.0105428296741295 0.6971475110090850 0.9715016319344016 O
atom_frac 0.6825091728801524 0.6340862439368850 0.5424910878665656 O
atom_frac 0.1824969098882363 0.3659015944565240 0.9575188354567814 O
atom_frac 0.3175650687756004 0.3659318588662117 0.4575067945516835 O
atom_frac 0.8175265803524496 0.6340921015645620 0.0424788626785428 O
atom_frac 0.8115783073572089 0.3699687406097709 0.5033801582596169 O
atom_frac 0.3115722588242704 0.6300493621933256 0.9966312148358653 O
atom_frac 0.1883996101842200 0.6300210503261994 0.4966192996802690 O
atom_frac 0.6884284450667835 0.3699726456948937 0.0033783984550624 O
atom_frac 0.9143727092305269 0.2928511196454835 0.3659775364172475 O
atom_frac 0.4143635534680996 0.7071484340032869 0.1340299476350140 O
atom_frac 0.0856373163490076 0.7071484340032869 0.6340157469221381 O
atom_frac 0.5856423291387785 0.2928452620178064 0.8659840813201214 O
