#=======================================================
# FHI-aims file: ./geometry.in
# Created using the Atomic Simulation Environment (ASE)
# Wed Feb  9 14:46:30 2022
#=======================================================
lattice_vector 4.1649170299999998 1.1274867900000001 -0.0001036500000000 
lattice_vector -0.6730180000000000 9.7975964599999994 -0.0062002000000000 
lattice_vector -0.0014639900000000 0.0088689700000000 14.0144340799999991 
atom_frac 0.0616377900000000 0.3967934400000000 0.1414263900000000 Cu
    initial_moment         1.000000
atom_frac 0.9381912700000000 1.1033117500000000 0.6414263100000001 Cu
    initial_moment        -1.000000
atom_frac 0.9381898300000000 0.6033120500000000 0.8585145600000000 Cu
    initial_moment         1.000000
atom_frac 0.0616347400000000 -0.1032055700000000 0.3585147100000001 Cu
    initial_moment        -1.000000
atom_frac 0.4999120500000000 0.0000532400000000 0.4999705100000000 Cu
    initial_moment        -1.000000
atom_frac 0.4999142500000001 0.5000526699999999 -0.0000296800000000 Cu
    initial_moment         1.000000
atom_frac 0.6980011200000000 0.7852881900000001 0.4445937200000000 H
atom_frac 0.3018214300000000 0.7148184600000000 0.9445939300000000 H
atom_frac 0.3018232800000000 0.2148184600000000 0.5553470700000001 H
atom_frac 0.6980054500000000 0.2852870600000000 0.0553469400000000 H
atom_frac 0.3915629500000000 0.6049547000000000 0.2250710700000000 C
atom_frac 0.5090921200000000 0.6853466399999999 0.3003123900000000 C
atom_frac 0.7378292900000000 0.7270685199999999 0.2327001400000000 C
atom_frac 0.6074927100000000 0.6515829500000000 0.1564588200000000 C
atom_frac 0.6082567700000000 0.8951531500000002 0.7250717600000000 C
atom_frac 0.4907262900000000 0.8147621600000000 0.8003135500000000 C
atom_frac 0.2619888600000000 0.7730402400000002 0.7327003800000000 C
atom_frac 0.3923282100000000 0.8485237300000000 0.6564587100000000 C
atom_frac 0.6082572800000001 0.3951538900000000 0.7748688900000001 C
atom_frac 0.4907282800000000 0.3147622199999999 0.6996273500000000 C
atom_frac 0.2619910500000000 0.2730401000000000 0.7672396600000001 C
atom_frac 0.3923294900000000 0.3485245799999999 0.8434812100000001 C
atom_frac 0.3915706800000000 0.1049534900000000 0.2748697200000000 C
atom_frac 0.5091003200000001 0.1853446700000000 0.1996280100000000 C
atom_frac 0.7378382700000000 0.2270666000000000 0.2672410200000000 C
atom_frac 0.6074990500000000 0.1515829300000000 0.3434827900000000 C
atom_frac 0.1984886100000000 0.5248402499999999 0.2255099900000000 O
atom_frac 0.4306761000000000 0.7168515000000001 0.3841736600000000 O
atom_frac 0.9321220700000000 0.8052440900000000 0.2352132900000000 O
atom_frac 0.6678499700000000 0.6363895700000001 0.0695717100000000 O
atom_frac 0.8246332300000000 0.8569989400000001 0.4626423600000000 O
atom_frac 0.8013320700000000 0.9752672099999999 0.7255105900000000 O
atom_frac 0.5691423500000000 0.7832563500000000 0.8841753700000001 O
atom_frac 0.0676949300000000 0.6948652000000000 0.7352131800000000 O
atom_frac 0.3319752000000000 0.8637147300000000 0.5695707300000000 O
atom_frac 0.1751903100000000 0.6431075300000001 0.9626431000000001 O
atom_frac 0.8013319900000000 0.4752682100000001 0.7744302700000001 O
atom_frac 0.5691446400000000 0.2832567900000000 0.6157662800000001 O
atom_frac 0.0676980900000000 0.1948646000000000 0.7647266800000001 O
atom_frac 0.3319787400000000 0.3637149700000000 0.9303688600000001 O
atom_frac 0.1751907500000000 0.1431077800000000 0.5372982100000000 O
atom_frac 0.1984946700000000 0.0248397600000000 0.2744313000000000 O
atom_frac 0.4306835500000000 0.2168504200000000 0.1157661800000000 O
atom_frac 0.9321316300000000 0.3052418400000000 0.2647280600000000 O
atom_frac 0.6678497900000000 0.1363920900000000 0.4303708500000000 O
atom_frac 0.8246385400000000 0.3569971900000000 0.0372976200000000 O
