#=======================================================
# FHI-aims file: ./geometry.in
# Created using the Atomic Simulation Environment (ASE)
# Fri Jan 14 15:06:22 2022
#=======================================================
lattice_vector 8.3990624139999994 0.0034914110000000 0.0030286580000000 
lattice_vector -4.2013628310000000 7.1626294680000004 -0.5423998430000000 
lattice_vector -0.0013385280000000 -0.1994111070000000 16.3682904660000013 
atom_frac 0.5690512885489483 0.2729676294494324 0.3894104977462334 Ag
atom_frac 0.2950808328727419 0.7261962395287967 0.1109007095855929 Ag
atom_frac 0.4315853251832348 0.7267604701648336 0.6108626714156600 Ag
atom_frac 0.7040471073079501 0.2735315129601971 0.8893837240987565 Ag
atom_frac 0.1238808567264940 0.0004757354773943 0.7503094395600414 Ag
atom_frac 0.8763238552998728 0.9997409308402962 0.2498028274343511 Ag
atom_frac 0.3604622345799484 0.3366819785233305 0.6736173553594043 H
atom_frac 0.0381635924372857 0.7908321278031849 0.5645660832257064 H
atom_frac 0.2347372738044057 0.8787956043720440 0.4436405667410456 H
atom_frac 0.6735762473394685 0.2842993429160430 0.6979680566277509 H
atom_frac 0.6723859723233829 0.6216543973084541 0.9010414893957090 H
atom_frac 0.7176691516865645 0.8648753866302669 0.8088697305932299 H
atom_frac 0.0224573252636730 0.6640281745005649 0.8271664527314256 H
atom_frac 0.2525589464537887 0.2113542587803678 0.9356752089608377 H
atom_frac 0.3608660212591773 0.1225033803770330 0.0560964430847903 H
atom_frac 0.3874865645680713 0.7168554169383511 0.8024759047746386 H
atom_frac 0.0528532616807026 0.3783525698958953 0.5987319396862674 H
atom_frac 0.8543362291443302 0.1345037188101514 0.6905991390604170 H
atom_frac 0.6412084569654725 0.6633710182173119 0.3268600557964305 H
atom_frac 0.9595761212921090 0.2106381299836855 0.4351971805200633 H
atom_frac 0.7629521561175211 0.1224361881834355 0.5557806215006664 H
atom_frac 0.3290519032312885 0.7163467665339665 0.3024170299460778 H
atom_frac 0.3239143486101382 0.3767812236654179 0.0987668843081906 H
atom_frac 0.2791796809519056 0.1334738726073113 0.1908049392366280 H
atom_frac 0.9756600369679019 0.3361593238930423 0.1735164603674306 H
atom_frac 0.7524230833806128 0.7907059959144647 0.0639938531166777 H
atom_frac 0.6439749577662608 0.8793035772956869 0.9431976891194367 H
atom_frac 0.6101083420104628 0.2841013892823199 0.1979986087223864 H
atom_frac 0.9489896787780907 0.6206621079442625 0.4010609952431210 H
atom_frac 0.1468755080270936 0.8640988810384724 0.3090244685134422 H
atom_frac 0.4556150697454698 0.2747202143310830 0.5603992865320748 C
atom_frac 0.3356303933962721 0.2326116441079761 0.6236003711426434 C
atom_frac 0.1551990131233294 0.9316246965049043 0.5624278884535342 C
atom_frac 0.2647086743444473 0.9799631701362940 0.4959467315444854 C
atom_frac 0.6905418482124048 0.5429866813629474 0.6723966988789059 C
atom_frac 0.6791346874163506 0.4115965386362815 0.7233530621799248 C
atom_frac 0.6779830564522057 0.5989209813862926 0.8349895363755451 C
atom_frac 0.7010353709097216 0.7317104211028321 0.7835984122951416 C
atom_frac 0.1803707206466781 0.7253043632918758 0.9399484157193426 C
atom_frac 0.1025701576303816 0.7680863048265107 0.8770109053867472 C
atom_frac 0.2267104798292437 0.0698273712082909 0.9378571182225315 C
atom_frac 0.2878147166224494 0.0209356361192619 0.0041576604191818 C
atom_frac 0.1464302550549093 0.4569396275588318 0.8275391082056700 C
atom_frac 0.2667469148831145 0.5890074981676604 0.7768062105059528 C
atom_frac 0.0802955218090986 0.4011382190813039 0.6648314399100385 C
atom_frac 0.9702161164203175 0.2679124209620980 0.7160324547398530 C
atom_frac 0.5451540371991966 0.7250942758388346 0.4397698068219995 C
atom_frac 0.6655161251191970 0.7675764674994028 0.3767062753152928 C
atom_frac 0.8437244437884887 0.0692915095665043 0.4374139355600803 C
atom_frac 0.7339654074718213 0.0207211027123364 0.5038343014369957 C
atom_frac 0.3102527451324377 0.4565931863874084 0.3276198228698277 C
atom_frac 0.3218560014826649 0.5884229061724183 0.2768099521195140 C
atom_frac 0.3198584967580516 0.4000180080243680 0.1648731105035210 C
atom_frac 0.2969293398374333 0.2670416130434816 0.2161706525747746 C
atom_frac 0.8188530519242576 0.2746864010783128 0.0602567407403569 C
atom_frac 0.8964983525736302 0.2323032901349008 0.1234256005773204 C
atom_frac 0.7760862795636285 0.9315177759203762 0.0619639905339184 C
atom_frac 0.7151435203639451 0.9801968214012006 0.9955488455402061 C
atom_frac 0.8521173750530906 0.5427634347355479 0.1725002397499509 C
atom_frac 0.7320107832839041 0.4111987674775434 0.2234086170576361 C
atom_frac 0.9206009453885144 0.5980812544280171 0.3350295502438669 C
atom_frac 0.0304199909034678 0.7310270008401147 0.2836940612937724 C
atom_frac 0.6681803200936257 0.4866926908500344 0.5645237276689485 S
atom_frac 0.1788101378282292 0.5122754930927869 0.9355739760411338 S
atom_frac 0.3334565493637313 0.5123240733835670 0.4355912785108841 S
atom_frac 0.8181170626078469 0.4866491983029846 0.0645614552212450 S
atom_frac 0.4196639024949461 0.1532917287549509 0.4924353223030237 N
atom_frac 0.1855392034859307 0.0580512357719556 0.6283365430091266 N
atom_frac 0.7022573680444849 0.7068746299281583 0.6997750812578900 N
atom_frac 0.6680230455051016 0.4338897832482685 0.8059936719950045 N
atom_frac 0.2674417573151543 0.8467989582486481 0.0077273575179717 N
atom_frac 0.1285857391450164 0.9432420472707718 0.8722795410907835 N
atom_frac 0.9952480939144763 0.2926598392062373 0.7998993182539635 N
atom_frac 0.2344796900102608 0.5666424427003063 0.6940863272659854 N
atom_frac 0.5800001065477715 0.8467842217485994 0.5075275896541882 N
atom_frac 0.8147862349323347 0.9425852793587595 0.3718140517686450 N
atom_frac 0.2971105006065287 0.2922689786730856 0.3000421340428261 N
atom_frac 0.3314833810779091 0.5656759253862447 0.1940934876445155 N
atom_frac 0.7335014606823904 0.1535231438677158 0.9922233135952325 N
atom_frac 0.8721095843478395 0.0577173615284039 0.1279415569091853 N
atom_frac 0.0043993477152639 0.7065690290823382 0.1998760721603219 N
atom_frac 0.7653976935919645 0.4331935690926657 0.3060378239512502 N
